2048
element
Pt  -14.715  -14.715  -12.753
Pt  -14.715  -14.715  -8.829
Pt  -14.715  -14.715  -4.905
Pt  -14.715  -14.715  -0.981
Pt  -14.715  -14.715  2.943
Pt  -14.715  -14.715  6.867
Pt  -14.715  -14.715  10.791
Pt  -14.715  -14.715  14.715
Pt  -14.715  -12.753  -14.715
Pt  -14.715  -10.791  -12.753
Pt  -14.715  -12.753  -10.791
Pt  -14.715  -10.791  -8.829
Pt  -14.715  -12.753  -6.867
Pt  -14.715  -10.791  -4.905
Pt  -14.715  -12.753  -2.943
Pt  -14.715  -10.791  -0.981
Pt  -14.715  -12.753  0.981
Pt  -14.715  -10.791  2.943
Pt  -14.715  -12.753  4.905
Pt  -14.715  -10.791  6.867
Pt  -14.715  -12.753  8.829
Pt  -14.715  -10.791  10.791
Pt  -14.715  -12.753  12.753
Pt  -14.715  -10.791  14.715
Pt  -14.715  -8.829  -14.715
Pt  -14.715  -6.867  -12.753
Pt  -14.715  -8.829  -10.791
Pt  -14.715  -6.867  -8.829
Pt  -14.715  -8.829  -6.867
Pt  -14.715  -6.867  -4.905
Pt  -14.715  -8.829  -2.943
Pt  -14.715  -6.867  -0.981
Pt  -14.715  -8.829  0.981
Pt  -14.715  -6.867  2.943
Pt  -14.715  -8.829  4.905
Pt  -14.715  -6.867  6.867
Pt  -14.715  -8.829  8.829
Pt  -14.715  -6.867  10.791
Pt  -14.715  -8.829  12.753
Pt  -14.715  -6.867  14.715
Pt  -14.715  -4.905  -14.715
Pt  -14.715  -2.943  -12.753
Pt  -14.715  -4.905  -10.791
Pt  -14.715  -2.943  -8.829
Pt  -14.715  -4.905  -6.867
Pt  -14.715  -2.943  -4.905
Pt  -14.715  -4.905  -2.943
Pt  -14.715  -2.943  -0.981
Pt  -14.715  -4.905  0.981
Pt  -14.715  -2.943  2.943
Pt  -14.715  -4.905  4.905
Pt  -14.715  -2.943  6.867
Pt  -14.715  -4.905  8.829
Pt  -14.715  -2.943  10.791
Pt  -14.715  -4.905  12.753
Pt  -14.715  -2.943  14.715
Pt  -14.715  -0.981  -14.715
Pt  -14.715  0.981  -12.753
Pt  -14.715  -0.981  -10.791
Pt  -14.715  0.981  -8.829
Pt  -14.715  -0.981  -6.867
Pt  -14.715  0.981  -4.905
Pt  -14.715  -0.981  -2.943
Pt  -14.715  0.981  -0.981
Pt  -14.715  -0.981  0.981
Pt  -14.715  0.981  2.943
Pt  -14.715  -0.981  4.905
Pt  -14.715  0.981  6.867
Pt  -14.715  -0.981  8.829
Pt  -14.715  0.981  10.791
Pt  -14.715  -0.981  12.753
Pt  -14.715  0.981  14.715
Pt  -14.715  2.943  -14.715
Pt  -14.715  4.905  -12.753
Pt  -14.715  2.943  -10.791
Pt  -14.715  4.905  -8.829
Pt  -14.715  2.943  -6.867
Pt  -14.715  4.905  -4.905
Pt  -14.715  2.943  -2.943
Pt  -14.715  4.905  -0.981
Pt  -14.715  2.943  0.981
Pt  -14.715  4.905  2.943
Pt  -14.715  2.943  4.905
Pt  -14.715  4.905  6.867
Pt  -14.715  2.943  8.829
Pt  -14.715  4.905  10.791
Pt  -14.715  2.943  12.753
Pt  -14.715  4.905  14.715
Pt  -14.715  6.867  -14.715
Pt  -14.715  8.829  -12.753
Pt  -14.715  6.867  -10.791
Pt  -14.715  8.829  -8.829
Pt  -14.715  6.867  -6.867
Pt  -14.715  8.829  -4.905
Pt  -14.715  6.867  -2.943
Pt  -14.715  8.829  -0.981
Pt  -14.715  6.867  0.981
Pt  -14.715  8.829  2.943
Pt  -14.715  6.867  4.905
Pt  -14.715  8.829  6.867
Pt  -14.715  6.867  8.829
Pt  -14.715  8.829  10.791
Pt  -14.715  6.867  12.753
Pt  -14.715  8.829  14.715
Pt  -14.715  10.791  -14.715
Pt  -14.715  12.753  -12.753
Pt  -14.715  10.791  -10.791
Pt  -14.715  12.753  -8.829
Pt  -14.715  10.791  -6.867
Pt  -14.715  12.753  -4.905
Pt  -14.715  10.791  -2.943
Pt  -14.715  12.753  -0.981
Pt  -14.715  10.791  0.981
Pt  -14.715  12.753  2.943
Pt  -14.715  10.791  4.905
Pt  -14.715  12.753  6.867
Pt  -14.715  10.791  8.829
Pt  -14.715  12.753  10.791
Pt  -14.715  10.791  12.753
Pt  -14.715  12.753  14.715
Pt  -14.715  14.715  -14.715
Pt  -14.715  14.715  -10.791
Pt  -14.715  14.715  -6.867
Pt  -14.715  14.715  -2.943
Pt  -14.715  14.715  0.981
Pt  -14.715  14.715  4.905
Pt  -14.715  14.715  8.829
Pt  -14.715  14.715  12.753
Pt  -12.753  -14.715  -14.715
Pt  -10.791  -14.715  -12.753
Pt  -12.753  -14.715  -10.791
Pt  -10.791  -14.715  -8.829
Pt  -12.753  -14.715  -6.867
Pt  -10.791  -14.715  -4.905
Pt  -12.753  -14.715  -2.943
Pt  -10.791  -14.715  -0.981
Pt  -12.753  -14.715  0.981
Pt  -10.791  -14.715  2.943
Pt  -12.753  -14.715  4.905
Pt  -10.791  -14.715  6.867
Pt  -12.753  -14.715  8.829
Pt  -10.791  -14.715  10.791
Pt  -12.753  -14.715  12.753
Pt  -10.791  -14.715  14.715
Pt  -10.791  -12.753  -14.715
Pt  -12.753  -10.791  -14.715
Pt  -12.753  -12.753  -12.753
Pt  -10.791  -10.791  -12.753
Pt  -10.791  -12.753  -10.791
Pt  -12.753  -10.791  -10.791
Pt  -12.753  -12.753  -8.829
Pt  -10.791  -10.791  -8.829
Pt  -10.791  -12.753  -6.867
Pt  -12.753  -10.791  -6.867
Pt  -12.753  -12.753  -4.905
Pt  -10.791  -10.791  -4.905
Pt  -10.791  -12.753  -2.943
Pt  -12.753  -10.791  -2.943
Pt  -12.753  -12.753  -0.981
Pt  -10.791  -10.791  -0.981
Pt  -10.791  -12.753  0.981
Pt  -12.753  -10.791  0.981
Pt  -12.753  -12.753  2.943
Pt  -10.791  -10.791  2.943
Pt  -10.791  -12.753  4.905
Pt  -12.753  -10.791  4.905
Pt  -12.753  -12.753  6.867
Pt  -10.791  -10.791  6.867
Pt  -10.791  -12.753  8.829
Pt  -12.753  -10.791  8.829
Pt  -12.753  -12.753  10.791
Pt  -10.791  -10.791  10.791
Pt  -10.791  -12.753  12.753
Pt  -12.753  -10.791  12.753
Pt  -12.753  -12.753  14.715
Pt  -10.791  -10.791  14.715
Pt  -10.791  -8.829  -14.715
Pt  -12.753  -6.867  -14.715
Pt  -12.753  -8.829  -12.753
Pt  -10.791  -6.867  -12.753
Pt  -10.791  -8.829  -10.791
Pt  -12.753  -6.867  -10.791
Pt  -12.753  -8.829  -8.829
Pt  -10.791  -6.867  -8.829
Pt  -10.791  -8.829  -6.867
Pt  -12.753  -6.867  -6.867
Pt  -12.753  -8.829  -4.905
Pt  -10.791  -6.867  -4.905
Pt  -10.791  -8.829  -2.943
Pt  -12.753  -6.867  -2.943
Pt  -12.753  -8.829  -0.981
Pt  -10.791  -6.867  -0.981
Pt  -10.791  -8.829  0.981
Pt  -12.753  -6.867  0.981
Pt  -12.753  -8.829  2.943
Pt  -10.791  -6.867  2.943
Pt  -10.791  -8.829  4.905
Pt  -12.753  -6.867  4.905
Pt  -12.753  -8.829  6.867
Pt  -10.791  -6.867  6.867
Pt  -10.791  -8.829  8.829
Pt  -12.753  -6.867  8.829
Pt  -12.753  -8.829  10.791
Pt  -10.791  -6.867  10.791
Pt  -10.791  -8.829  12.753
Pt  -12.753  -6.867  12.753
Pt  -12.753  -8.829  14.715
Pt  -10.791  -6.867  14.715
Pt  -10.791  -4.905  -14.715
Pt  -12.753  -2.943  -14.715
Pt  -12.753  -4.905  -12.753
Pt  -10.791  -2.943  -12.753
Pt  -10.791  -4.905  -10.791
Pt  -12.753  -2.943  -10.791
Pt  -12.753  -4.905  -8.829
Pt  -10.791  -2.943  -8.829
Pt  -10.791  -4.905  -6.867
Pt  -12.753  -2.943  -6.867
Pt  -12.753  -4.905  -4.905
Pt  -10.791  -2.943  -4.905
Pt  -10.791  -4.905  -2.943
Pt  -12.753  -2.943  -2.943
Pt  -12.753  -4.905  -0.981
Pt  -10.791  -2.943  -0.981
Pt  -10.791  -4.905  0.981
Pt  -12.753  -2.943  0.981
Pt  -12.753  -4.905  2.943
Pt  -10.791  -2.943  2.943
Pt  -10.791  -4.905  4.905
Pt  -12.753  -2.943  4.905
Pt  -12.753  -4.905  6.867
Pt  -10.791  -2.943  6.867
Pt  -10.791  -4.905  8.829
Pt  -12.753  -2.943  8.829
Pt  -12.753  -4.905  10.791
Pt  -10.791  -2.943  10.791
Pt  -10.791  -4.905  12.753
Pt  -12.753  -2.943  12.753
Pt  -12.753  -4.905  14.715
Pt  -10.791  -2.943  14.715
Pt  -10.791  -0.981  -14.715
Pt  -12.753  0.981  -14.715
Pt  -12.753  -0.981  -12.753
Pt  -10.791  0.981  -12.753
Pt  -10.791  -0.981  -10.791
Pt  -12.753  0.981  -10.791
Pt  -12.753  -0.981  -8.829
Pt  -10.791  0.981  -8.829
Pt  -10.791  -0.981  -6.867
Pt  -12.753  0.981  -6.867
Pt  -12.753  -0.981  -4.905
Pt  -10.791  0.981  -4.905
Pt  -10.791  -0.981  -2.943
Pt  -12.753  0.981  -2.943
Pt  -12.753  -0.981  -0.981
Pt  -10.791  0.981  -0.981
Pt  -10.791  -0.981  0.981
Pt  -12.753  0.981  0.981
Pt  -12.753  -0.981  2.943
Pt  -10.791  0.981  2.943
Pt  -10.791  -0.981  4.905
Pt  -12.753  0.981  4.905
Pt  -12.753  -0.981  6.867
Pt  -10.791  0.981  6.867
Pt  -10.791  -0.981  8.829
Pt  -12.753  0.981  8.829
Pt  -12.753  -0.981  10.791
Pt  -10.791  0.981  10.791
Pt  -10.791  -0.981  12.753
Pt  -12.753  0.981  12.753
Pt  -12.753  -0.981  14.715
Pt  -10.791  0.981  14.715
Pt  -10.791  2.943  -14.715
Pt  -12.753  4.905  -14.715
Pt  -12.753  2.943  -12.753
Pt  -10.791  4.905  -12.753
Pt  -10.791  2.943  -10.791
Pt  -12.753  4.905  -10.791
Pt  -12.753  2.943  -8.829
Pt  -10.791  4.905  -8.829
Pt  -10.791  2.943  -6.867
Pt  -12.753  4.905  -6.867
Pt  -12.753  2.943  -4.905
Pt  -10.791  4.905  -4.905
Pt  -10.791  2.943  -2.943
Pt  -12.753  4.905  -2.943
Pt  -12.753  2.943  -0.981
Pt  -10.791  4.905  -0.981
Pt  -10.791  2.943  0.981
Pt  -12.753  4.905  0.981
Pt  -12.753  2.943  2.943
Pt  -10.791  4.905  2.943
Pt  -10.791  2.943  4.905
Pt  -12.753  4.905  4.905
Pt  -12.753  2.943  6.867
Pt  -10.791  4.905  6.867
Pt  -10.791  2.943  8.829
Pt  -12.753  4.905  8.829
Pt  -12.753  2.943  10.791
Pt  -10.791  4.905  10.791
Pt  -10.791  2.943  12.753
Pt  -12.753  4.905  12.753
Pt  -12.753  2.943  14.715
Pt  -10.791  4.905  14.715
Pt  -10.791  6.867  -14.715
Pt  -12.753  8.829  -14.715
Pt  -12.753  6.867  -12.753
Pt  -10.791  8.829  -12.753
Pt  -10.791  6.867  -10.791
Pt  -12.753  8.829  -10.791
Pt  -12.753  6.867  -8.829
Pt  -10.791  8.829  -8.829
Pt  -10.791  6.867  -6.867
Pt  -12.753  8.829  -6.867
Pt  -12.753  6.867  -4.905
Pt  -10.791  8.829  -4.905
Pt  -10.791  6.867  -2.943
Pt  -12.753  8.829  -2.943
Pt  -12.753  6.867  -0.981
Pt  -10.791  8.829  -0.981
Pt  -10.791  6.867  0.981
Pt  -12.753  8.829  0.981
Pt  -12.753  6.867  2.943
Pt  -10.791  8.829  2.943
Pt  -10.791  6.867  4.905
Pt  -12.753  8.829  4.905
Pt  -12.753  6.867  6.867
Pt  -10.791  8.829  6.867
Pt  -10.791  6.867  8.829
Pt  -12.753  8.829  8.829
Pt  -12.753  6.867  10.791
Pt  -10.791  8.829  10.791
Pt  -10.791  6.867  12.753
Pt  -12.753  8.829  12.753
Pt  -12.753  6.867  14.715
Pt  -10.791  8.829  14.715
Pt  -10.791  10.791  -14.715
Pt  -12.753  12.753  -14.715
Pt  -12.753  10.791  -12.753
Pt  -10.791  12.753  -12.753
Pt  -10.791  10.791  -10.791
Pt  -12.753  12.753  -10.791
Pt  -12.753  10.791  -8.829
Pt  -10.791  12.753  -8.829
Pt  -10.791  10.791  -6.867
Pt  -12.753  12.753  -6.867
Pt  -12.753  10.791  -4.905
Pt  -10.791  12.753  -4.905
Pt  -10.791  10.791  -2.943
Pt  -12.753  12.753  -2.943
Pt  -12.753  10.791  -0.981
Pt  -10.791  12.753  -0.981
Pt  -10.791  10.791  0.981
Pt  -12.753  12.753  0.981
Pt  -12.753  10.791  2.943
Pt  -10.791  12.753  2.943
Pt  -10.791  10.791  4.905
Pt  -12.753  12.753  4.905
Pt  -12.753  10.791  6.867
Pt  -10.791  12.753  6.867
Pt  -10.791  10.791  8.829
Pt  -12.753  12.753  8.829
Pt  -12.753  10.791  10.791
Pt  -10.791  12.753  10.791
Pt  -10.791  10.791  12.753
Pt  -12.753  12.753  12.753
Pt  -12.753  10.791  14.715
Pt  -10.791  12.753  14.715
Pt  -10.791  14.715  -14.715
Pt  -12.753  14.715  -12.753
Pt  -10.791  14.715  -10.791
Pt  -12.753  14.715  -8.829
Pt  -10.791  14.715  -6.867
Pt  -12.753  14.715  -4.905
Pt  -10.791  14.715  -2.943
Pt  -12.753  14.715  -0.981
Pt  -10.791  14.715  0.981
Pt  -12.753  14.715  2.943
Pt  -10.791  14.715  4.905
Pt  -12.753  14.715  6.867
Pt  -10.791  14.715  8.829
Pt  -12.753  14.715  10.791
Pt  -10.791  14.715  12.753
Pt  -12.753  14.715  14.715
Pt  -8.829  -14.715  -14.715
Pt  -6.867  -14.715  -12.753
Pt  -8.829  -14.715  -10.791
Pt  -6.867  -14.715  -8.829
Pt  -8.829  -14.715  -6.867
Pt  -6.867  -14.715  -4.905
Pt  -8.829  -14.715  -2.943
Pt  -6.867  -14.715  -0.981
Pt  -8.829  -14.715  0.981
Pt  -6.867  -14.715  2.943
Pt  -8.829  -14.715  4.905
Pt  -6.867  -14.715  6.867
Pt  -8.829  -14.715  8.829
Pt  -6.867  -14.715  10.791
Pt  -8.829  -14.715  12.753
Pt  -6.867  -14.715  14.715
Pt  -6.867  -12.753  -14.715
Pt  -8.829  -10.791  -14.715
Pt  -8.829  -12.753  -12.753
Pt  -6.867  -10.791  -12.753
Pt  -6.867  -12.753  -10.791
Pt  -8.829  -10.791  -10.791
Pt  -8.829  -12.753  -8.829
Pt  -6.867  -10.791  -8.829
Pt  -6.867  -12.753  -6.867
Pt  -8.829  -10.791  -6.867
Pt  -8.829  -12.753  -4.905
Pt  -6.867  -10.791  -4.905
Pt  -6.867  -12.753  -2.943
Pt  -8.829  -10.791  -2.943
Pt  -8.829  -12.753  -0.981
Pt  -6.867  -10.791  -0.981
Pt  -6.867  -12.753  0.981
Pt  -8.829  -10.791  0.981
Pt  -8.829  -12.753  2.943
Pt  -6.867  -10.791  2.943
Pt  -6.867  -12.753  4.905
Pt  -8.829  -10.791  4.905
Pt  -8.829  -12.753  6.867
Pt  -6.867  -10.791  6.867
Pt  -6.867  -12.753  8.829
Pt  -8.829  -10.791  8.829
Pt  -8.829  -12.753  10.791
Pt  -6.867  -10.791  10.791
Pt  -6.867  -12.753  12.753
Pt  -8.829  -10.791  12.753
Pt  -8.829  -12.753  14.715
Pt  -6.867  -10.791  14.715
Pt  -6.867  -8.829  -14.715
Pt  -8.829  -6.867  -14.715
Pt  -8.829  -8.829  -12.753
Pt  -6.867  -6.867  -12.753
Pt  -6.867  -8.829  -10.791
Pt  -8.829  -6.867  -10.791
Pt  -8.829  -8.829  -8.829
Pt  -6.867  -6.867  -8.829
Pt  -6.867  -8.829  -6.867
Pt  -8.829  -6.867  -6.867
Pt  -8.829  -8.829  -4.905
Pt  -6.867  -6.867  -4.905
Pt  -6.867  -8.829  -2.943
Pt  -8.829  -6.867  -2.943
Pt  -8.829  -8.829  -0.981
Pt  -6.867  -6.867  -0.981
Pt  -6.867  -8.829  0.981
Pt  -8.829  -6.867  0.981
Pt  -8.829  -8.829  2.943
Pt  -6.867  -6.867  2.943
Pt  -6.867  -8.829  4.905
Pt  -8.829  -6.867  4.905
Pt  -8.829  -8.829  6.867
Pt  -6.867  -6.867  6.867
Pt  -6.867  -8.829  8.829
Pt  -8.829  -6.867  8.829
Pt  -8.829  -8.829  10.791
Pt  -6.867  -6.867  10.791
Pt  -6.867  -8.829  12.753
Pt  -8.829  -6.867  12.753
Pt  -8.829  -8.829  14.715
Pt  -6.867  -6.867  14.715
Pt  -6.867  -4.905  -14.715
Pt  -8.829  -2.943  -14.715
Pt  -8.829  -4.905  -12.753
Pt  -6.867  -2.943  -12.753
Pt  -6.867  -4.905  -10.791
Pt  -8.829  -2.943  -10.791
Pt  -8.829  -4.905  -8.829
Pt  -6.867  -2.943  -8.829
Pt  -6.867  -4.905  -6.867
Pt  -8.829  -2.943  -6.867
Pt  -8.829  -4.905  -4.905
Pt  -6.867  -2.943  -4.905
Pt  -6.867  -4.905  -2.943
Pt  -8.829  -2.943  -2.943
Pt  -8.829  -4.905  -0.981
Pt  -6.867  -2.943  -0.981
Pt  -6.867  -4.905  0.981
Pt  -8.829  -2.943  0.981
Pt  -8.829  -4.905  2.943
Pt  -6.867  -2.943  2.943
Pt  -6.867  -4.905  4.905
Pt  -8.829  -2.943  4.905
Pt  -8.829  -4.905  6.867
Pt  -6.867  -2.943  6.867
Pt  -6.867  -4.905  8.829
Pt  -8.829  -2.943  8.829
Pt  -8.829  -4.905  10.791
Pt  -6.867  -2.943  10.791
Pt  -6.867  -4.905  12.753
Pt  -8.829  -2.943  12.753
Pt  -8.829  -4.905  14.715
Pt  -6.867  -2.943  14.715
Pt  -6.867  -0.981  -14.715
Pt  -8.829  0.981  -14.715
Pt  -8.829  -0.981  -12.753
Pt  -6.867  0.981  -12.753
Pt  -6.867  -0.981  -10.791
Pt  -8.829  0.981  -10.791
Pt  -8.829  -0.981  -8.829
Pt  -6.867  0.981  -8.829
Pt  -6.867  -0.981  -6.867
Pt  -8.829  0.981  -6.867
Pt  -8.829  -0.981  -4.905
Pt  -6.867  0.981  -4.905
Pt  -6.867  -0.981  -2.943
Pt  -8.829  0.981  -2.943
Pt  -8.829  -0.981  -0.981
Pt  -6.867  0.981  -0.981
Pt  -6.867  -0.981  0.981
Pt  -8.829  0.981  0.981
Pt  -8.829  -0.981  2.943
Pt  -6.867  0.981  2.943
Pt  -6.867  -0.981  4.905
Pt  -8.829  0.981  4.905
Pt  -8.829  -0.981  6.867
Pt  -6.867  0.981  6.867
Pt  -6.867  -0.981  8.829
Pt  -8.829  0.981  8.829
Pt  -8.829  -0.981  10.791
Pt  -6.867  0.981  10.791
Pt  -6.867  -0.981  12.753
Pt  -8.829  0.981  12.753
Pt  -8.829  -0.981  14.715
Pt  -6.867  0.981  14.715
Pt  -6.867  2.943  -14.715
Pt  -8.829  4.905  -14.715
Pt  -8.829  2.943  -12.753
Pt  -6.867  4.905  -12.753
Pt  -6.867  2.943  -10.791
Pt  -8.829  4.905  -10.791
Pt  -8.829  2.943  -8.829
Pt  -6.867  4.905  -8.829
Pt  -6.867  2.943  -6.867
Pt  -8.829  4.905  -6.867
Pt  -8.829  2.943  -4.905
Pt  -6.867  4.905  -4.905
Pt  -6.867  2.943  -2.943
Pt  -8.829  4.905  -2.943
Pt  -8.829  2.943  -0.981
Pt  -6.867  4.905  -0.981
Pt  -6.867  2.943  0.981
Pt  -8.829  4.905  0.981
Pt  -8.829  2.943  2.943
Pt  -6.867  4.905  2.943
Pt  -6.867  2.943  4.905
Pt  -8.829  4.905  4.905
Pt  -8.829  2.943  6.867
Pt  -6.867  4.905  6.867
Pt  -6.867  2.943  8.829
Pt  -8.829  4.905  8.829
Pt  -8.829  2.943  10.791
Pt  -6.867  4.905  10.791
Pt  -6.867  2.943  12.753
Pt  -8.829  4.905  12.753
Pt  -8.829  2.943  14.715
Pt  -6.867  4.905  14.715
Pt  -6.867  6.867  -14.715
Pt  -8.829  8.829  -14.715
Pt  -8.829  6.867  -12.753
Pt  -6.867  8.829  -12.753
Pt  -6.867  6.867  -10.791
Pt  -8.829  8.829  -10.791
Pt  -8.829  6.867  -8.829
Pt  -6.867  8.829  -8.829
Pt  -6.867  6.867  -6.867
Pt  -8.829  8.829  -6.867
Pt  -8.829  6.867  -4.905
Pt  -6.867  8.829  -4.905
Pt  -6.867  6.867  -2.943
Pt  -8.829  8.829  -2.943
Pt  -8.829  6.867  -0.981
Pt  -6.867  8.829  -0.981
Pt  -6.867  6.867  0.981
Pt  -8.829  8.829  0.981
Pt  -8.829  6.867  2.943
Pt  -6.867  8.829  2.943
Pt  -6.867  6.867  4.905
Pt  -8.829  8.829  4.905
Pt  -8.829  6.867  6.867
Pt  -6.867  8.829  6.867
Pt  -6.867  6.867  8.829
Pt  -8.829  8.829  8.829
Pt  -8.829  6.867  10.791
Pt  -6.867  8.829  10.791
Pt  -6.867  6.867  12.753
Pt  -8.829  8.829  12.753
Pt  -8.829  6.867  14.715
Pt  -6.867  8.829  14.715
Pt  -6.867  10.791  -14.715
Pt  -8.829  12.753  -14.715
Pt  -8.829  10.791  -12.753
Pt  -6.867  12.753  -12.753
Pt  -6.867  10.791  -10.791
Pt  -8.829  12.753  -10.791
Pt  -8.829  10.791  -8.829
Pt  -6.867  12.753  -8.829
Pt  -6.867  10.791  -6.867
Pt  -8.829  12.753  -6.867
Pt  -8.829  10.791  -4.905
Pt  -6.867  12.753  -4.905
Pt  -6.867  10.791  -2.943
Pt  -8.829  12.753  -2.943
Pt  -8.829  10.791  -0.981
Pt  -6.867  12.753  -0.981
Pt  -6.867  10.791  0.981
Pt  -8.829  12.753  0.981
Pt  -8.829  10.791  2.943
Pt  -6.867  12.753  2.943
Pt  -6.867  10.791  4.905
Pt  -8.829  12.753  4.905
Pt  -8.829  10.791  6.867
Pt  -6.867  12.753  6.867
Pt  -6.867  10.791  8.829
Pt  -8.829  12.753  8.829
Pt  -8.829  10.791  10.791
Pt  -6.867  12.753  10.791
Pt  -6.867  10.791  12.753
Pt  -8.829  12.753  12.753
Pt  -8.829  10.791  14.715
Pt  -6.867  12.753  14.715
Pt  -6.867  14.715  -14.715
Pt  -8.829  14.715  -12.753
Pt  -6.867  14.715  -10.791
Pt  -8.829  14.715  -8.829
Pt  -6.867  14.715  -6.867
Pt  -8.829  14.715  -4.905
Pt  -6.867  14.715  -2.943
Pt  -8.829  14.715  -0.981
Pt  -6.867  14.715  0.981
Pt  -8.829  14.715  2.943
Pt  -6.867  14.715  4.905
Pt  -8.829  14.715  6.867
Pt  -6.867  14.715  8.829
Pt  -8.829  14.715  10.791
Pt  -6.867  14.715  12.753
Pt  -8.829  14.715  14.715
Pt  -4.905  -14.715  -14.715
Pt  -2.943  -14.715  -12.753
Pt  -4.905  -14.715  -10.791
Pt  -2.943  -14.715  -8.829
Pt  -4.905  -14.715  -6.867
Pt  -2.943  -14.715  -4.905
Pt  -4.905  -14.715  -2.943
Pt  -2.943  -14.715  -0.981
Pt  -4.905  -14.715  0.981
Pt  -2.943  -14.715  2.943
Pt  -4.905  -14.715  4.905
Pt  -2.943  -14.715  6.867
Pt  -4.905  -14.715  8.829
Pt  -2.943  -14.715  10.791
Pt  -4.905  -14.715  12.753
Pt  -2.943  -14.715  14.715
Pt  -2.943  -12.753  -14.715
Pt  -4.905  -10.791  -14.715
Pt  -4.905  -12.753  -12.753
Pt  -2.943  -10.791  -12.753
Pt  -2.943  -12.753  -10.791
Pt  -4.905  -10.791  -10.791
Pt  -4.905  -12.753  -8.829
Pt  -2.943  -10.791  -8.829
Pt  -2.943  -12.753  -6.867
Pt  -4.905  -10.791  -6.867
Pt  -4.905  -12.753  -4.905
Pt  -2.943  -10.791  -4.905
Pt  -2.943  -12.753  -2.943
Pt  -4.905  -10.791  -2.943
Pt  -4.905  -12.753  -0.981
Pt  -2.943  -10.791  -0.981
Pt  -2.943  -12.753  0.981
Pt  -4.905  -10.791  0.981
Pt  -4.905  -12.753  2.943
Pt  -2.943  -10.791  2.943
Pt  -2.943  -12.753  4.905
Pt  -4.905  -10.791  4.905
Pt  -4.905  -12.753  6.867
Pt  -2.943  -10.791  6.867
Pt  -2.943  -12.753  8.829
Pt  -4.905  -10.791  8.829
Pt  -4.905  -12.753  10.791
Pt  -2.943  -10.791  10.791
Pt  -2.943  -12.753  12.753
Pt  -4.905  -10.791  12.753
Pt  -4.905  -12.753  14.715
Pt  -2.943  -10.791  14.715
Pt  -2.943  -8.829  -14.715
Pt  -4.905  -6.867  -14.715
Pt  -4.905  -8.829  -12.753
Pt  -2.943  -6.867  -12.753
Pt  -2.943  -8.829  -10.791
Pt  -4.905  -6.867  -10.791
Pt  -4.905  -8.829  -8.829
Pt  -2.943  -6.867  -8.829
Pt  -2.943  -8.829  -6.867
Pt  -4.905  -6.867  -6.867
Pt  -4.905  -8.829  -4.905
Pt  -2.943  -6.867  -4.905
Pt  -2.943  -8.829  -2.943
Pt  -4.905  -6.867  -2.943
Pt  -4.905  -8.829  -0.981
Pt  -2.943  -6.867  -0.981
Pt  -2.943  -8.829  0.981
Pt  -4.905  -6.867  0.981
Pt  -4.905  -8.829  2.943
Pt  -2.943  -6.867  2.943
Pt  -2.943  -8.829  4.905
Pt  -4.905  -6.867  4.905
Pt  -4.905  -8.829  6.867
Pt  -2.943  -6.867  6.867
Pt  -2.943  -8.829  8.829
Pt  -4.905  -6.867  8.829
Pt  -4.905  -8.829  10.791
Pt  -2.943  -6.867  10.791
Pt  -2.943  -8.829  12.753
Pt  -4.905  -6.867  12.753
Pt  -4.905  -8.829  14.715
Pt  -2.943  -6.867  14.715
Pt  -2.943  -4.905  -14.715
Pt  -4.905  -2.943  -14.715
Pt  -4.905  -4.905  -12.753
Pt  -2.943  -2.943  -12.753
Pt  -2.943  -4.905  -10.791
Pt  -4.905  -2.943  -10.791
Pt  -4.905  -4.905  -8.829
Pt  -2.943  -2.943  -8.829
Pt  -2.943  -4.905  -6.867
Pt  -4.905  -2.943  -6.867
Pt  -4.905  -4.905  -4.905
Pt  -2.943  -2.943  -4.905
Pt  -2.943  -4.905  -2.943
Pt  -4.905  -2.943  -2.943
Pt  -4.905  -4.905  -0.981
Pt  -2.943  -2.943  -0.981
Pt  -2.943  -4.905  0.981
Pt  -4.905  -2.943  0.981
Pt  -4.905  -4.905  2.943
Pt  -2.943  -2.943  2.943
Pt  -2.943  -4.905  4.905
Pt  -4.905  -2.943  4.905
Pt  -4.905  -4.905  6.867
Pt  -2.943  -2.943  6.867
Pt  -2.943  -4.905  8.829
Pt  -4.905  -2.943  8.829
Pt  -4.905  -4.905  10.791
Pt  -2.943  -2.943  10.791
Pt  -2.943  -4.905  12.753
Pt  -4.905  -2.943  12.753
Pt  -4.905  -4.905  14.715
Pt  -2.943  -2.943  14.715
Pt  -2.943  -0.981  -14.715
Pt  -4.905  0.981  -14.715
Pt  -4.905  -0.981  -12.753
Pt  -2.943  0.981  -12.753
Pt  -2.943  -0.981  -10.791
Pt  -4.905  0.981  -10.791
Pt  -4.905  -0.981  -8.829
Pt  -2.943  0.981  -8.829
Pt  -2.943  -0.981  -6.867
Pt  -4.905  0.981  -6.867
Pt  -4.905  -0.981  -4.905
Pt  -2.943  0.981  -4.905
Pt  -2.943  -0.981  -2.943
Pt  -4.905  0.981  -2.943
Pt  -4.905  -0.981  -0.981
Pt  -2.943  0.981  -0.981
Pt  -2.943  -0.981  0.981
Pt  -4.905  0.981  0.981
Pt  -4.905  -0.981  2.943
Pt  -2.943  0.981  2.943
Pt  -2.943  -0.981  4.905
Pt  -4.905  0.981  4.905
Pt  -4.905  -0.981  6.867
Pt  -2.943  0.981  6.867
Pt  -2.943  -0.981  8.829
Pt  -4.905  0.981  8.829
Pt  -4.905  -0.981  10.791
Pt  -2.943  0.981  10.791
Pt  -2.943  -0.981  12.753
Pt  -4.905  0.981  12.753
Pt  -4.905  -0.981  14.715
Pt  -2.943  0.981  14.715
Pt  -2.943  2.943  -14.715
Pt  -4.905  4.905  -14.715
Pt  -4.905  2.943  -12.753
Pt  -2.943  4.905  -12.753
Pt  -2.943  2.943  -10.791
Pt  -4.905  4.905  -10.791
Pt  -4.905  2.943  -8.829
Pt  -2.943  4.905  -8.829
Pt  -2.943  2.943  -6.867
Pt  -4.905  4.905  -6.867
Pt  -4.905  2.943  -4.905
Pt  -2.943  4.905  -4.905
Pt  -2.943  2.943  -2.943
Pt  -4.905  4.905  -2.943
Pt  -4.905  2.943  -0.981
Pt  -2.943  4.905  -0.981
Pt  -2.943  2.943  0.981
Pt  -4.905  4.905  0.981
Pt  -4.905  2.943  2.943
Pt  -2.943  4.905  2.943
Pt  -2.943  2.943  4.905
Pt  -4.905  4.905  4.905
Pt  -4.905  2.943  6.867
Pt  -2.943  4.905  6.867
Pt  -2.943  2.943  8.829
Pt  -4.905  4.905  8.829
Pt  -4.905  2.943  10.791
Pt  -2.943  4.905  10.791
Pt  -2.943  2.943  12.753
Pt  -4.905  4.905  12.753
Pt  -4.905  2.943  14.715
Pt  -2.943  4.905  14.715
Pt  -2.943  6.867  -14.715
Pt  -4.905  8.829  -14.715
Pt  -4.905  6.867  -12.753
Pt  -2.943  8.829  -12.753
Pt  -2.943  6.867  -10.791
Pt  -4.905  8.829  -10.791
Pt  -4.905  6.867  -8.829
Pt  -2.943  8.829  -8.829
Pt  -2.943  6.867  -6.867
Pt  -4.905  8.829  -6.867
Pt  -4.905  6.867  -4.905
Pt  -2.943  8.829  -4.905
Pt  -2.943  6.867  -2.943
Pt  -4.905  8.829  -2.943
Pt  -4.905  6.867  -0.981
Pt  -2.943  8.829  -0.981
Pt  -2.943  6.867  0.981
Pt  -4.905  8.829  0.981
Pt  -4.905  6.867  2.943
Pt  -2.943  8.829  2.943
Pt  -2.943  6.867  4.905
Pt  -4.905  8.829  4.905
Pt  -4.905  6.867  6.867
Pt  -2.943  8.829  6.867
Pt  -2.943  6.867  8.829
Pt  -4.905  8.829  8.829
Pt  -4.905  6.867  10.791
Pt  -2.943  8.829  10.791
Pt  -2.943  6.867  12.753
Pt  -4.905  8.829  12.753
Pt  -4.905  6.867  14.715
Pt  -2.943  8.829  14.715
Pt  -2.943  10.791  -14.715
Pt  -4.905  12.753  -14.715
Pt  -4.905  10.791  -12.753
Pt  -2.943  12.753  -12.753
Pt  -2.943  10.791  -10.791
Pt  -4.905  12.753  -10.791
Pt  -4.905  10.791  -8.829
Pt  -2.943  12.753  -8.829
Pt  -2.943  10.791  -6.867
Pt  -4.905  12.753  -6.867
Pt  -4.905  10.791  -4.905
Pt  -2.943  12.753  -4.905
Pt  -2.943  10.791  -2.943
Pt  -4.905  12.753  -2.943
Pt  -4.905  10.791  -0.981
Pt  -2.943  12.753  -0.981
Pt  -2.943  10.791  0.981
Pt  -4.905  12.753  0.981
Pt  -4.905  10.791  2.943
Pt  -2.943  12.753  2.943
Pt  -2.943  10.791  4.905
Pt  -4.905  12.753  4.905
Pt  -4.905  10.791  6.867
Pt  -2.943  12.753  6.867
Pt  -2.943  10.791  8.829
Pt  -4.905  12.753  8.829
Pt  -4.905  10.791  10.791
Pt  -2.943  12.753  10.791
Pt  -2.943  10.791  12.753
Pt  -4.905  12.753  12.753
Pt  -4.905  10.791  14.715
Pt  -2.943  12.753  14.715
Pt  -2.943  14.715  -14.715
Pt  -4.905  14.715  -12.753
Pt  -2.943  14.715  -10.791
Pt  -4.905  14.715  -8.829
Pt  -2.943  14.715  -6.867
Pt  -4.905  14.715  -4.905
Pt  -2.943  14.715  -2.943
Pt  -4.905  14.715  -0.981
Pt  -2.943  14.715  0.981
Pt  -4.905  14.715  2.943
Pt  -2.943  14.715  4.905
Pt  -4.905  14.715  6.867
Pt  -2.943  14.715  8.829
Pt  -4.905  14.715  10.791
Pt  -2.943  14.715  12.753
Pt  -4.905  14.715  14.715
Pt  -0.981  -14.715  -14.715
Pt  0.981  -14.715  -12.753
Pt  -0.981  -14.715  -10.791
Pt  0.981  -14.715  -8.829
Pt  -0.981  -14.715  -6.867
Pt  0.981  -14.715  -4.905
Pt  -0.981  -14.715  -2.943
Pt  0.981  -14.715  -0.981
Pt  -0.981  -14.715  0.981
Pt  0.981  -14.715  2.943
Pt  -0.981  -14.715  4.905
Pt  0.981  -14.715  6.867
Pt  -0.981  -14.715  8.829
Pt  0.981  -14.715  10.791
Pt  -0.981  -14.715  12.753
Pt  0.981  -14.715  14.715
Pt  0.981  -12.753  -14.715
Pt  -0.981  -10.791  -14.715
Pt  -0.981  -12.753  -12.753
Pt  0.981  -10.791  -12.753
Pt  0.981  -12.753  -10.791
Pt  -0.981  -10.791  -10.791
Pt  -0.981  -12.753  -8.829
Pt  0.981  -10.791  -8.829
Pt  0.981  -12.753  -6.867
Pt  -0.981  -10.791  -6.867
Pt  -0.981  -12.753  -4.905
Pt  0.981  -10.791  -4.905
Pt  0.981  -12.753  -2.943
Pt  -0.981  -10.791  -2.943
Pt  -0.981  -12.753  -0.981
Pt  0.981  -10.791  -0.981
Pt  0.981  -12.753  0.981
Pt  -0.981  -10.791  0.981
Pt  -0.981  -12.753  2.943
Pt  0.981  -10.791  2.943
Pt  0.981  -12.753  4.905
Pt  -0.981  -10.791  4.905
Pt  -0.981  -12.753  6.867
Pt  0.981  -10.791  6.867
Pt  0.981  -12.753  8.829
Pt  -0.981  -10.791  8.829
Pt  -0.981  -12.753  10.791
Pt  0.981  -10.791  10.791
Pt  0.981  -12.753  12.753
Pt  -0.981  -10.791  12.753
Pt  -0.981  -12.753  14.715
Pt  0.981  -10.791  14.715
Pt  0.981  -8.829  -14.715
Pt  -0.981  -6.867  -14.715
Pt  -0.981  -8.829  -12.753
Pt  0.981  -6.867  -12.753
Pt  0.981  -8.829  -10.791
Pt  -0.981  -6.867  -10.791
Pt  -0.981  -8.829  -8.829
Pt  0.981  -6.867  -8.829
Pt  0.981  -8.829  -6.867
Pt  -0.981  -6.867  -6.867
Pt  -0.981  -8.829  -4.905
Pt  0.981  -6.867  -4.905
Pt  0.981  -8.829  -2.943
Pt  -0.981  -6.867  -2.943
Pt  -0.981  -8.829  -0.981
Pt  0.981  -6.867  -0.981
Pt  0.981  -8.829  0.981
Pt  -0.981  -6.867  0.981
Pt  -0.981  -8.829  2.943
Pt  0.981  -6.867  2.943
Pt  0.981  -8.829  4.905
Pt  -0.981  -6.867  4.905
Pt  -0.981  -8.829  6.867
Pt  0.981  -6.867  6.867
Pt  0.981  -8.829  8.829
Pt  -0.981  -6.867  8.829
Pt  -0.981  -8.829  10.791
Pt  0.981  -6.867  10.791
Pt  0.981  -8.829  12.753
Pt  -0.981  -6.867  12.753
Pt  -0.981  -8.829  14.715
Pt  0.981  -6.867  14.715
Pt  0.981  -4.905  -14.715
Pt  -0.981  -2.943  -14.715
Pt  -0.981  -4.905  -12.753
Pt  0.981  -2.943  -12.753
Pt  0.981  -4.905  -10.791
Pt  -0.981  -2.943  -10.791
Pt  -0.981  -4.905  -8.829
Pt  0.981  -2.943  -8.829
Pt  0.981  -4.905  -6.867
Pt  -0.981  -2.943  -6.867
Pt  -0.981  -4.905  -4.905
Pt  0.981  -2.943  -4.905
Pt  0.981  -4.905  -2.943
Pt  -0.981  -2.943  -2.943
Pt  -0.981  -4.905  -0.981
Pt  0.981  -2.943  -0.981
Pt  0.981  -4.905  0.981
Pt  -0.981  -2.943  0.981
Pt  -0.981  -4.905  2.943
Pt  0.981  -2.943  2.943
Pt  0.981  -4.905  4.905
Pt  -0.981  -2.943  4.905
Pt  -0.981  -4.905  6.867
Pt  0.981  -2.943  6.867
Pt  0.981  -4.905  8.829
Pt  -0.981  -2.943  8.829
Pt  -0.981  -4.905  10.791
Pt  0.981  -2.943  10.791
Pt  0.981  -4.905  12.753
Pt  -0.981  -2.943  12.753
Pt  -0.981  -4.905  14.715
Pt  0.981  -2.943  14.715
Pt  0.981  -0.981  -14.715
Pt  -0.981  0.981  -14.715
Pt  -0.981  -0.981  -12.753
Pt  0.981  0.981  -12.753
Pt  0.981  -0.981  -10.791
Pt  -0.981  0.981  -10.791
Pt  -0.981  -0.981  -8.829
Pt  0.981  0.981  -8.829
Pt  0.981  -0.981  -6.867
Pt  -0.981  0.981  -6.867
Pt  -0.981  -0.981  -4.905
Pt  0.981  0.981  -4.905
Pt  0.981  -0.981  -2.943
Pt  -0.981  0.981  -2.943
Pt  -0.981  -0.981  -0.981
Pt  0.981  0.981  -0.981
Pt  0.981  -0.981  0.981
Pt  -0.981  0.981  0.981
Pt  -0.981  -0.981  2.943
Pt  0.981  0.981  2.943
Pt  0.981  -0.981  4.905
Pt  -0.981  0.981  4.905
Pt  -0.981  -0.981  6.867
Pt  0.981  0.981  6.867
Pt  0.981  -0.981  8.829
Pt  -0.981  0.981  8.829
Pt  -0.981  -0.981  10.791
Pt  0.981  0.981  10.791
Pt  0.981  -0.981  12.753
Pt  -0.981  0.981  12.753
Pt  -0.981  -0.981  14.715
Pt  0.981  0.981  14.715
Pt  0.981  2.943  -14.715
Pt  -0.981  4.905  -14.715
Pt  -0.981  2.943  -12.753
Pt  0.981  4.905  -12.753
Pt  0.981  2.943  -10.791
Pt  -0.981  4.905  -10.791
Pt  -0.981  2.943  -8.829
Pt  0.981  4.905  -8.829
Pt  0.981  2.943  -6.867
Pt  -0.981  4.905  -6.867
Pt  -0.981  2.943  -4.905
Pt  0.981  4.905  -4.905
Pt  0.981  2.943  -2.943
Pt  -0.981  4.905  -2.943
Pt  -0.981  2.943  -0.981
Pt  0.981  4.905  -0.981
Pt  0.981  2.943  0.981
Pt  -0.981  4.905  0.981
Pt  -0.981  2.943  2.943
Pt  0.981  4.905  2.943
Pt  0.981  2.943  4.905
Pt  -0.981  4.905  4.905
Pt  -0.981  2.943  6.867
Pt  0.981  4.905  6.867
Pt  0.981  2.943  8.829
Pt  -0.981  4.905  8.829
Pt  -0.981  2.943  10.791
Pt  0.981  4.905  10.791
Pt  0.981  2.943  12.753
Pt  -0.981  4.905  12.753
Pt  -0.981  2.943  14.715
Pt  0.981  4.905  14.715
Pt  0.981  6.867  -14.715
Pt  -0.981  8.829  -14.715
Pt  -0.981  6.867  -12.753
Pt  0.981  8.829  -12.753
Pt  0.981  6.867  -10.791
Pt  -0.981  8.829  -10.791
Pt  -0.981  6.867  -8.829
Pt  0.981  8.829  -8.829
Pt  0.981  6.867  -6.867
Pt  -0.981  8.829  -6.867
Pt  -0.981  6.867  -4.905
Pt  0.981  8.829  -4.905
Pt  0.981  6.867  -2.943
Pt  -0.981  8.829  -2.943
Pt  -0.981  6.867  -0.981
Pt  0.981  8.829  -0.981
Pt  0.981  6.867  0.981
Pt  -0.981  8.829  0.981
Pt  -0.981  6.867  2.943
Pt  0.981  8.829  2.943
Pt  0.981  6.867  4.905
Pt  -0.981  8.829  4.905
Pt  -0.981  6.867  6.867
Pt  0.981  8.829  6.867
Pt  0.981  6.867  8.829
Pt  -0.981  8.829  8.829
Pt  -0.981  6.867  10.791
Pt  0.981  8.829  10.791
Pt  0.981  6.867  12.753
Pt  -0.981  8.829  12.753
Pt  -0.981  6.867  14.715
Pt  0.981  8.829  14.715
Pt  0.981  10.791  -14.715
Pt  -0.981  12.753  -14.715
Pt  -0.981  10.791  -12.753
Pt  0.981  12.753  -12.753
Pt  0.981  10.791  -10.791
Pt  -0.981  12.753  -10.791
Pt  -0.981  10.791  -8.829
Pt  0.981  12.753  -8.829
Pt  0.981  10.791  -6.867
Pt  -0.981  12.753  -6.867
Pt  -0.981  10.791  -4.905
Pt  0.981  12.753  -4.905
Pt  0.981  10.791  -2.943
Pt  -0.981  12.753  -2.943
Pt  -0.981  10.791  -0.981
Pt  0.981  12.753  -0.981
Pt  0.981  10.791  0.981
Pt  -0.981  12.753  0.981
Pt  -0.981  10.791  2.943
Pt  0.981  12.753  2.943
Pt  0.981  10.791  4.905
Pt  -0.981  12.753  4.905
Pt  -0.981  10.791  6.867
Pt  0.981  12.753  6.867
Pt  0.981  10.791  8.829
Pt  -0.981  12.753  8.829
Pt  -0.981  10.791  10.791
Pt  0.981  12.753  10.791
Pt  0.981  10.791  12.753
Pt  -0.981  12.753  12.753
Pt  -0.981  10.791  14.715
Pt  0.981  12.753  14.715
Pt  0.981  14.715  -14.715
Pt  -0.981  14.715  -12.753
Pt  0.981  14.715  -10.791
Pt  -0.981  14.715  -8.829
Pt  0.981  14.715  -6.867
Pt  -0.981  14.715  -4.905
Pt  0.981  14.715  -2.943
Pt  -0.981  14.715  -0.981
Pt  0.981  14.715  0.981
Pt  -0.981  14.715  2.943
Pt  0.981  14.715  4.905
Pt  -0.981  14.715  6.867
Pt  0.981  14.715  8.829
Pt  -0.981  14.715  10.791
Pt  0.981  14.715  12.753
Pt  -0.981  14.715  14.715
Pt  2.943  -14.715  -14.715
Pt  4.905  -14.715  -12.753
Pt  2.943  -14.715  -10.791
Pt  4.905  -14.715  -8.829
Pt  2.943  -14.715  -6.867
Pt  4.905  -14.715  -4.905
Pt  2.943  -14.715  -2.943
Pt  4.905  -14.715  -0.981
Pt  2.943  -14.715  0.981
Pt  4.905  -14.715  2.943
Pt  2.943  -14.715  4.905
Pt  4.905  -14.715  6.867
Pt  2.943  -14.715  8.829
Pt  4.905  -14.715  10.791
Pt  2.943  -14.715  12.753
Pt  4.905  -14.715  14.715
Pt  4.905  -12.753  -14.715
Pt  2.943  -10.791  -14.715
Pt  2.943  -12.753  -12.753
Pt  4.905  -10.791  -12.753
Pt  4.905  -12.753  -10.791
Pt  2.943  -10.791  -10.791
Pt  2.943  -12.753  -8.829
Pt  4.905  -10.791  -8.829
Pt  4.905  -12.753  -6.867
Pt  2.943  -10.791  -6.867
Pt  2.943  -12.753  -4.905
Pt  4.905  -10.791  -4.905
Pt  4.905  -12.753  -2.943
Pt  2.943  -10.791  -2.943
Pt  2.943  -12.753  -0.981
Pt  4.905  -10.791  -0.981
Pt  4.905  -12.753  0.981
Pt  2.943  -10.791  0.981
Pt  2.943  -12.753  2.943
Pt  4.905  -10.791  2.943
Pt  4.905  -12.753  4.905
Pt  2.943  -10.791  4.905
Pt  2.943  -12.753  6.867
Pt  4.905  -10.791  6.867
Pt  4.905  -12.753  8.829
Pt  2.943  -10.791  8.829
Pt  2.943  -12.753  10.791
Pt  4.905  -10.791  10.791
Pt  4.905  -12.753  12.753
Pt  2.943  -10.791  12.753
Pt  2.943  -12.753  14.715
Pt  4.905  -10.791  14.715
Pt  4.905  -8.829  -14.715
Pt  2.943  -6.867  -14.715
Pt  2.943  -8.829  -12.753
Pt  4.905  -6.867  -12.753
Pt  4.905  -8.829  -10.791
Pt  2.943  -6.867  -10.791
Pt  2.943  -8.829  -8.829
Pt  4.905  -6.867  -8.829
Pt  4.905  -8.829  -6.867
Pt  2.943  -6.867  -6.867
Pt  2.943  -8.829  -4.905
Pt  4.905  -6.867  -4.905
Pt  4.905  -8.829  -2.943
Pt  2.943  -6.867  -2.943
Pt  2.943  -8.829  -0.981
Pt  4.905  -6.867  -0.981
Pt  4.905  -8.829  0.981
Pt  2.943  -6.867  0.981
Pt  2.943  -8.829  2.943
Pt  4.905  -6.867  2.943
Pt  4.905  -8.829  4.905
Pt  2.943  -6.867  4.905
Pt  2.943  -8.829  6.867
Pt  4.905  -6.867  6.867
Pt  4.905  -8.829  8.829
Pt  2.943  -6.867  8.829
Pt  2.943  -8.829  10.791
Pt  4.905  -6.867  10.791
Pt  4.905  -8.829  12.753
Pt  2.943  -6.867  12.753
Pt  2.943  -8.829  14.715
Pt  4.905  -6.867  14.715
Pt  4.905  -4.905  -14.715
Pt  2.943  -2.943  -14.715
Pt  2.943  -4.905  -12.753
Pt  4.905  -2.943  -12.753
Pt  4.905  -4.905  -10.791
Pt  2.943  -2.943  -10.791
Pt  2.943  -4.905  -8.829
Pt  4.905  -2.943  -8.829
Pt  4.905  -4.905  -6.867
Pt  2.943  -2.943  -6.867
Pt  2.943  -4.905  -4.905
Pt  4.905  -2.943  -4.905
Pt  4.905  -4.905  -2.943
Pt  2.943  -2.943  -2.943
Pt  2.943  -4.905  -0.981
Pt  4.905  -2.943  -0.981
Pt  4.905  -4.905  0.981
Pt  2.943  -2.943  0.981
Pt  2.943  -4.905  2.943
Pt  4.905  -2.943  2.943
Pt  4.905  -4.905  4.905
Pt  2.943  -2.943  4.905
Pt  2.943  -4.905  6.867
Pt  4.905  -2.943  6.867
Pt  4.905  -4.905  8.829
Pt  2.943  -2.943  8.829
Pt  2.943  -4.905  10.791
Pt  4.905  -2.943  10.791
Pt  4.905  -4.905  12.753
Pt  2.943  -2.943  12.753
Pt  2.943  -4.905  14.715
Pt  4.905  -2.943  14.715
Pt  4.905  -0.981  -14.715
Pt  2.943  0.981  -14.715
Pt  2.943  -0.981  -12.753
Pt  4.905  0.981  -12.753
Pt  4.905  -0.981  -10.791
Pt  2.943  0.981  -10.791
Pt  2.943  -0.981  -8.829
Pt  4.905  0.981  -8.829
Pt  4.905  -0.981  -6.867
Pt  2.943  0.981  -6.867
Pt  2.943  -0.981  -4.905
Pt  4.905  0.981  -4.905
Pt  4.905  -0.981  -2.943
Pt  2.943  0.981  -2.943
Pt  2.943  -0.981  -0.981
Pt  4.905  0.981  -0.981
Pt  4.905  -0.981  0.981
Pt  2.943  0.981  0.981
Pt  2.943  -0.981  2.943
Pt  4.905  0.981  2.943
Pt  4.905  -0.981  4.905
Pt  2.943  0.981  4.905
Pt  2.943  -0.981  6.867
Pt  4.905  0.981  6.867
Pt  4.905  -0.981  8.829
Pt  2.943  0.981  8.829
Pt  2.943  -0.981  10.791
Pt  4.905  0.981  10.791
Pt  4.905  -0.981  12.753
Pt  2.943  0.981  12.753
Pt  2.943  -0.981  14.715
Pt  4.905  0.981  14.715
Pt  4.905  2.943  -14.715
Pt  2.943  4.905  -14.715
Pt  2.943  2.943  -12.753
Pt  4.905  4.905  -12.753
Pt  4.905  2.943  -10.791
Pt  2.943  4.905  -10.791
Pt  2.943  2.943  -8.829
Pt  4.905  4.905  -8.829
Pt  4.905  2.943  -6.867
Pt  2.943  4.905  -6.867
Pt  2.943  2.943  -4.905
Pt  4.905  4.905  -4.905
Pt  4.905  2.943  -2.943
Pt  2.943  4.905  -2.943
Pt  2.943  2.943  -0.981
Pt  4.905  4.905  -0.981
Pt  4.905  2.943  0.981
Pt  2.943  4.905  0.981
Pt  2.943  2.943  2.943
Pt  4.905  4.905  2.943
Pt  4.905  2.943  4.905
Pt  2.943  4.905  4.905
Pt  2.943  2.943  6.867
Pt  4.905  4.905  6.867
Pt  4.905  2.943  8.829
Pt  2.943  4.905  8.829
Pt  2.943  2.943  10.791
Pt  4.905  4.905  10.791
Pt  4.905  2.943  12.753
Pt  2.943  4.905  12.753
Pt  2.943  2.943  14.715
Pt  4.905  4.905  14.715
Pt  4.905  6.867  -14.715
Pt  2.943  8.829  -14.715
Pt  2.943  6.867  -12.753
Pt  4.905  8.829  -12.753
Pt  4.905  6.867  -10.791
Pt  2.943  8.829  -10.791
Pt  2.943  6.867  -8.829
Pt  4.905  8.829  -8.829
Pt  4.905  6.867  -6.867
Pt  2.943  8.829  -6.867
Pt  2.943  6.867  -4.905
Pt  4.905  8.829  -4.905
Pt  4.905  6.867  -2.943
Pt  2.943  8.829  -2.943
Pt  2.943  6.867  -0.981
Pt  4.905  8.829  -0.981
Pt  4.905  6.867  0.981
Pt  2.943  8.829  0.981
Pt  2.943  6.867  2.943
Pt  4.905  8.829  2.943
Pt  4.905  6.867  4.905
Pt  2.943  8.829  4.905
Pt  2.943  6.867  6.867
Pt  4.905  8.829  6.867
Pt  4.905  6.867  8.829
Pt  2.943  8.829  8.829
Pt  2.943  6.867  10.791
Pt  4.905  8.829  10.791
Pt  4.905  6.867  12.753
Pt  2.943  8.829  12.753
Pt  2.943  6.867  14.715
Pt  4.905  8.829  14.715
Pt  4.905  10.791  -14.715
Pt  2.943  12.753  -14.715
Pt  2.943  10.791  -12.753
Pt  4.905  12.753  -12.753
Pt  4.905  10.791  -10.791
Pt  2.943  12.753  -10.791
Pt  2.943  10.791  -8.829
Pt  4.905  12.753  -8.829
Pt  4.905  10.791  -6.867
Pt  2.943  12.753  -6.867
Pt  2.943  10.791  -4.905
Pt  4.905  12.753  -4.905
Pt  4.905  10.791  -2.943
Pt  2.943  12.753  -2.943
Pt  2.943  10.791  -0.981
Pt  4.905  12.753  -0.981
Pt  4.905  10.791  0.981
Pt  2.943  12.753  0.981
Pt  2.943  10.791  2.943
Pt  4.905  12.753  2.943
Pt  4.905  10.791  4.905
Pt  2.943  12.753  4.905
Pt  2.943  10.791  6.867
Pt  4.905  12.753  6.867
Pt  4.905  10.791  8.829
Pt  2.943  12.753  8.829
Pt  2.943  10.791  10.791
Pt  4.905  12.753  10.791
Pt  4.905  10.791  12.753
Pt  2.943  12.753  12.753
Pt  2.943  10.791  14.715
Pt  4.905  12.753  14.715
Pt  4.905  14.715  -14.715
Pt  2.943  14.715  -12.753
Pt  4.905  14.715  -10.791
Pt  2.943  14.715  -8.829
Pt  4.905  14.715  -6.867
Pt  2.943  14.715  -4.905
Pt  4.905  14.715  -2.943
Pt  2.943  14.715  -0.981
Pt  4.905  14.715  0.981
Pt  2.943  14.715  2.943
Pt  4.905  14.715  4.905
Pt  2.943  14.715  6.867
Pt  4.905  14.715  8.829
Pt  2.943  14.715  10.791
Pt  4.905  14.715  12.753
Pt  2.943  14.715  14.715
Pt  6.867  -14.715  -14.715
Pt  8.829  -14.715  -12.753
Pt  6.867  -14.715  -10.791
Pt  8.829  -14.715  -8.829
Pt  6.867  -14.715  -6.867
Pt  8.829  -14.715  -4.905
Pt  6.867  -14.715  -2.943
Pt  8.829  -14.715  -0.981
Pt  6.867  -14.715  0.981
Pt  8.829  -14.715  2.943
Pt  6.867  -14.715  4.905
Pt  8.829  -14.715  6.867
Pt  6.867  -14.715  8.829
Pt  8.829  -14.715  10.791
Pt  6.867  -14.715  12.753
Pt  8.829  -14.715  14.715
Pt  8.829  -12.753  -14.715
Pt  6.867  -10.791  -14.715
Pt  6.867  -12.753  -12.753
Pt  8.829  -10.791  -12.753
Pt  8.829  -12.753  -10.791
Pt  6.867  -10.791  -10.791
Pt  6.867  -12.753  -8.829
Pt  8.829  -10.791  -8.829
Pt  8.829  -12.753  -6.867
Pt  6.867  -10.791  -6.867
Pt  6.867  -12.753  -4.905
Pt  8.829  -10.791  -4.905
Pt  8.829  -12.753  -2.943
Pt  6.867  -10.791  -2.943
Pt  6.867  -12.753  -0.981
Pt  8.829  -10.791  -0.981
Pt  8.829  -12.753  0.981
Pt  6.867  -10.791  0.981
Pt  6.867  -12.753  2.943
Pt  8.829  -10.791  2.943
Pt  8.829  -12.753  4.905
Pt  6.867  -10.791  4.905
Pt  6.867  -12.753  6.867
Pt  8.829  -10.791  6.867
Pt  8.829  -12.753  8.829
Pt  6.867  -10.791  8.829
Pt  6.867  -12.753  10.791
Pt  8.829  -10.791  10.791
Pt  8.829  -12.753  12.753
Pt  6.867  -10.791  12.753
Pt  6.867  -12.753  14.715
Pt  8.829  -10.791  14.715
Pt  8.829  -8.829  -14.715
Pt  6.867  -6.867  -14.715
Pt  6.867  -8.829  -12.753
Pt  8.829  -6.867  -12.753
Pt  8.829  -8.829  -10.791
Pt  6.867  -6.867  -10.791
Pt  6.867  -8.829  -8.829
Pt  8.829  -6.867  -8.829
Pt  8.829  -8.829  -6.867
Pt  6.867  -6.867  -6.867
Pt  6.867  -8.829  -4.905
Pt  8.829  -6.867  -4.905
Pt  8.829  -8.829  -2.943
Pt  6.867  -6.867  -2.943
Pt  6.867  -8.829  -0.981
Pt  8.829  -6.867  -0.981
Pt  8.829  -8.829  0.981
Pt  6.867  -6.867  0.981
Pt  6.867  -8.829  2.943
Pt  8.829  -6.867  2.943
Pt  8.829  -8.829  4.905
Pt  6.867  -6.867  4.905
Pt  6.867  -8.829  6.867
Pt  8.829  -6.867  6.867
Pt  8.829  -8.829  8.829
Pt  6.867  -6.867  8.829
Pt  6.867  -8.829  10.791
Pt  8.829  -6.867  10.791
Pt  8.829  -8.829  12.753
Pt  6.867  -6.867  12.753
Pt  6.867  -8.829  14.715
Pt  8.829  -6.867  14.715
Pt  8.829  -4.905  -14.715
Pt  6.867  -2.943  -14.715
Pt  6.867  -4.905  -12.753
Pt  8.829  -2.943  -12.753
Pt  8.829  -4.905  -10.791
Pt  6.867  -2.943  -10.791
Pt  6.867  -4.905  -8.829
Pt  8.829  -2.943  -8.829
Pt  8.829  -4.905  -6.867
Pt  6.867  -2.943  -6.867
Pt  6.867  -4.905  -4.905
Pt  8.829  -2.943  -4.905
Pt  8.829  -4.905  -2.943
Pt  6.867  -2.943  -2.943
Pt  6.867  -4.905  -0.981
Pt  8.829  -2.943  -0.981
Pt  8.829  -4.905  0.981
Pt  6.867  -2.943  0.981
Pt  6.867  -4.905  2.943
Pt  8.829  -2.943  2.943
Pt  8.829  -4.905  4.905
Pt  6.867  -2.943  4.905
Pt  6.867  -4.905  6.867
Pt  8.829  -2.943  6.867
Pt  8.829  -4.905  8.829
Pt  6.867  -2.943  8.829
Pt  6.867  -4.905  10.791
Pt  8.829  -2.943  10.791
Pt  8.829  -4.905  12.753
Pt  6.867  -2.943  12.753
Pt  6.867  -4.905  14.715
Pt  8.829  -2.943  14.715
Pt  8.829  -0.981  -14.715
Pt  6.867  0.981  -14.715
Pt  6.867  -0.981  -12.753
Pt  8.829  0.981  -12.753
Pt  8.829  -0.981  -10.791
Pt  6.867  0.981  -10.791
Pt  6.867  -0.981  -8.829
Pt  8.829  0.981  -8.829
Pt  8.829  -0.981  -6.867
Pt  6.867  0.981  -6.867
Pt  6.867  -0.981  -4.905
Pt  8.829  0.981  -4.905
Pt  8.829  -0.981  -2.943
Pt  6.867  0.981  -2.943
Pt  6.867  -0.981  -0.981
Pt  8.829  0.981  -0.981
Pt  8.829  -0.981  0.981
Pt  6.867  0.981  0.981
Pt  6.867  -0.981  2.943
Pt  8.829  0.981  2.943
Pt  8.829  -0.981  4.905
Pt  6.867  0.981  4.905
Pt  6.867  -0.981  6.867
Pt  8.829  0.981  6.867
Pt  8.829  -0.981  8.829
Pt  6.867  0.981  8.829
Pt  6.867  -0.981  10.791
Pt  8.829  0.981  10.791
Pt  8.829  -0.981  12.753
Pt  6.867  0.981  12.753
Pt  6.867  -0.981  14.715
Pt  8.829  0.981  14.715
Pt  8.829  2.943  -14.715
Pt  6.867  4.905  -14.715
Pt  6.867  2.943  -12.753
Pt  8.829  4.905  -12.753
Pt  8.829  2.943  -10.791
Pt  6.867  4.905  -10.791
Pt  6.867  2.943  -8.829
Pt  8.829  4.905  -8.829
Pt  8.829  2.943  -6.867
Pt  6.867  4.905  -6.867
Pt  6.867  2.943  -4.905
Pt  8.829  4.905  -4.905
Pt  8.829  2.943  -2.943
Pt  6.867  4.905  -2.943
Pt  6.867  2.943  -0.981
Pt  8.829  4.905  -0.981
Pt  8.829  2.943  0.981
Pt  6.867  4.905  0.981
Pt  6.867  2.943  2.943
Pt  8.829  4.905  2.943
Pt  8.829  2.943  4.905
Pt  6.867  4.905  4.905
Pt  6.867  2.943  6.867
Pt  8.829  4.905  6.867
Pt  8.829  2.943  8.829
Pt  6.867  4.905  8.829
Pt  6.867  2.943  10.791
Pt  8.829  4.905  10.791
Pt  8.829  2.943  12.753
Pt  6.867  4.905  12.753
Pt  6.867  2.943  14.715
Pt  8.829  4.905  14.715
Pt  8.829  6.867  -14.715
Pt  6.867  8.829  -14.715
Pt  6.867  6.867  -12.753
Pt  8.829  8.829  -12.753
Pt  8.829  6.867  -10.791
Pt  6.867  8.829  -10.791
Pt  6.867  6.867  -8.829
Pt  8.829  8.829  -8.829
Pt  8.829  6.867  -6.867
Pt  6.867  8.829  -6.867
Pt  6.867  6.867  -4.905
Pt  8.829  8.829  -4.905
Pt  8.829  6.867  -2.943
Pt  6.867  8.829  -2.943
Pt  6.867  6.867  -0.981
Pt  8.829  8.829  -0.981
Pt  8.829  6.867  0.981
Pt  6.867  8.829  0.981
Pt  6.867  6.867  2.943
Pt  8.829  8.829  2.943
Pt  8.829  6.867  4.905
Pt  6.867  8.829  4.905
Pt  6.867  6.867  6.867
Pt  8.829  8.829  6.867
Pt  8.829  6.867  8.829
Pt  6.867  8.829  8.829
Pt  6.867  6.867  10.791
Pt  8.829  8.829  10.791
Pt  8.829  6.867  12.753
Pt  6.867  8.829  12.753
Pt  6.867  6.867  14.715
Pt  8.829  8.829  14.715
Pt  8.829  10.791  -14.715
Pt  6.867  12.753  -14.715
Pt  6.867  10.791  -12.753
Pt  8.829  12.753  -12.753
Pt  8.829  10.791  -10.791
Pt  6.867  12.753  -10.791
Pt  6.867  10.791  -8.829
Pt  8.829  12.753  -8.829
Pt  8.829  10.791  -6.867
Pt  6.867  12.753  -6.867
Pt  6.867  10.791  -4.905
Pt  8.829  12.753  -4.905
Pt  8.829  10.791  -2.943
Pt  6.867  12.753  -2.943
Pt  6.867  10.791  -0.981
Pt  8.829  12.753  -0.981
Pt  8.829  10.791  0.981
Pt  6.867  12.753  0.981
Pt  6.867  10.791  2.943
Pt  8.829  12.753  2.943
Pt  8.829  10.791  4.905
Pt  6.867  12.753  4.905
Pt  6.867  10.791  6.867
Pt  8.829  12.753  6.867
Pt  8.829  10.791  8.829
Pt  6.867  12.753  8.829
Pt  6.867  10.791  10.791
Pt  8.829  12.753  10.791
Pt  8.829  10.791  12.753
Pt  6.867  12.753  12.753
Pt  6.867  10.791  14.715
Pt  8.829  12.753  14.715
Pt  8.829  14.715  -14.715
Pt  6.867  14.715  -12.753
Pt  8.829  14.715  -10.791
Pt  6.867  14.715  -8.829
Pt  8.829  14.715  -6.867
Pt  6.867  14.715  -4.905
Pt  8.829  14.715  -2.943
Pt  6.867  14.715  -0.981
Pt  8.829  14.715  0.981
Pt  6.867  14.715  2.943
Pt  8.829  14.715  4.905
Pt  6.867  14.715  6.867
Pt  8.829  14.715  8.829
Pt  6.867  14.715  10.791
Pt  8.829  14.715  12.753
Pt  6.867  14.715  14.715
Pt  10.791  -14.715  -14.715
Pt  12.753  -14.715  -12.753
Pt  10.791  -14.715  -10.791
Pt  12.753  -14.715  -8.829
Pt  10.791  -14.715  -6.867
Pt  12.753  -14.715  -4.905
Pt  10.791  -14.715  -2.943
Pt  12.753  -14.715  -0.981
Pt  10.791  -14.715  0.981
Pt  12.753  -14.715  2.943
Pt  10.791  -14.715  4.905
Pt  12.753  -14.715  6.867
Pt  10.791  -14.715  8.829
Pt  12.753  -14.715  10.791
Pt  10.791  -14.715  12.753
Pt  12.753  -14.715  14.715
Pt  12.753  -12.753  -14.715
Pt  10.791  -10.791  -14.715
Pt  10.791  -12.753  -12.753
Pt  12.753  -10.791  -12.753
Pt  12.753  -12.753  -10.791
Pt  10.791  -10.791  -10.791
Pt  10.791  -12.753  -8.829
Pt  12.753  -10.791  -8.829
Pt  12.753  -12.753  -6.867
Pt  10.791  -10.791  -6.867
Pt  10.791  -12.753  -4.905
Pt  12.753  -10.791  -4.905
Pt  12.753  -12.753  -2.943
Pt  10.791  -10.791  -2.943
Pt  10.791  -12.753  -0.981
Pt  12.753  -10.791  -0.981
Pt  12.753  -12.753  0.981
Pt  10.791  -10.791  0.981
Pt  10.791  -12.753  2.943
Pt  12.753  -10.791  2.943
Pt  12.753  -12.753  4.905
Pt  10.791  -10.791  4.905
Pt  10.791  -12.753  6.867
Pt  12.753  -10.791  6.867
Pt  12.753  -12.753  8.829
Pt  10.791  -10.791  8.829
Pt  10.791  -12.753  10.791
Pt  12.753  -10.791  10.791
Pt  12.753  -12.753  12.753
Pt  10.791  -10.791  12.753
Pt  10.791  -12.753  14.715
Pt  12.753  -10.791  14.715
Pt  12.753  -8.829  -14.715
Pt  10.791  -6.867  -14.715
Pt  10.791  -8.829  -12.753
Pt  12.753  -6.867  -12.753
Pt  12.753  -8.829  -10.791
Pt  10.791  -6.867  -10.791
Pt  10.791  -8.829  -8.829
Pt  12.753  -6.867  -8.829
Pt  12.753  -8.829  -6.867
Pt  10.791  -6.867  -6.867
Pt  10.791  -8.829  -4.905
Pt  12.753  -6.867  -4.905
Pt  12.753  -8.829  -2.943
Pt  10.791  -6.867  -2.943
Pt  10.791  -8.829  -0.981
Pt  12.753  -6.867  -0.981
Pt  12.753  -8.829  0.981
Pt  10.791  -6.867  0.981
Pt  10.791  -8.829  2.943
Pt  12.753  -6.867  2.943
Pt  12.753  -8.829  4.905
Pt  10.791  -6.867  4.905
Pt  10.791  -8.829  6.867
Pt  12.753  -6.867  6.867
Pt  12.753  -8.829  8.829
Pt  10.791  -6.867  8.829
Pt  10.791  -8.829  10.791
Pt  12.753  -6.867  10.791
Pt  12.753  -8.829  12.753
Pt  10.791  -6.867  12.753
Pt  10.791  -8.829  14.715
Pt  12.753  -6.867  14.715
Pt  12.753  -4.905  -14.715
Pt  10.791  -2.943  -14.715
Pt  10.791  -4.905  -12.753
Pt  12.753  -2.943  -12.753
Pt  12.753  -4.905  -10.791
Pt  10.791  -2.943  -10.791
Pt  10.791  -4.905  -8.829
Pt  12.753  -2.943  -8.829
Pt  12.753  -4.905  -6.867
Pt  10.791  -2.943  -6.867
Pt  10.791  -4.905  -4.905
Pt  12.753  -2.943  -4.905
Pt  12.753  -4.905  -2.943
Pt  10.791  -2.943  -2.943
Pt  10.791  -4.905  -0.981
Pt  12.753  -2.943  -0.981
Pt  12.753  -4.905  0.981
Pt  10.791  -2.943  0.981
Pt  10.791  -4.905  2.943
Pt  12.753  -2.943  2.943
Pt  12.753  -4.905  4.905
Pt  10.791  -2.943  4.905
Pt  10.791  -4.905  6.867
Pt  12.753  -2.943  6.867
Pt  12.753  -4.905  8.829
Pt  10.791  -2.943  8.829
Pt  10.791  -4.905  10.791
Pt  12.753  -2.943  10.791
Pt  12.753  -4.905  12.753
Pt  10.791  -2.943  12.753
Pt  10.791  -4.905  14.715
Pt  12.753  -2.943  14.715
Pt  12.753  -0.981  -14.715
Pt  10.791  0.981  -14.715
Pt  10.791  -0.981  -12.753
Pt  12.753  0.981  -12.753
Pt  12.753  -0.981  -10.791
Pt  10.791  0.981  -10.791
Pt  10.791  -0.981  -8.829
Pt  12.753  0.981  -8.829
Pt  12.753  -0.981  -6.867
Pt  10.791  0.981  -6.867
Pt  10.791  -0.981  -4.905
Pt  12.753  0.981  -4.905
Pt  12.753  -0.981  -2.943
Pt  10.791  0.981  -2.943
Pt  10.791  -0.981  -0.981
Pt  12.753  0.981  -0.981
Pt  12.753  -0.981  0.981
Pt  10.791  0.981  0.981
Pt  10.791  -0.981  2.943
Pt  12.753  0.981  2.943
Pt  12.753  -0.981  4.905
Pt  10.791  0.981  4.905
Pt  10.791  -0.981  6.867
Pt  12.753  0.981  6.867
Pt  12.753  -0.981  8.829
Pt  10.791  0.981  8.829
Pt  10.791  -0.981  10.791
Pt  12.753  0.981  10.791
Pt  12.753  -0.981  12.753
Pt  10.791  0.981  12.753
Pt  10.791  -0.981  14.715
Pt  12.753  0.981  14.715
Pt  12.753  2.943  -14.715
Pt  10.791  4.905  -14.715
Pt  10.791  2.943  -12.753
Pt  12.753  4.905  -12.753
Pt  12.753  2.943  -10.791
Pt  10.791  4.905  -10.791
Pt  10.791  2.943  -8.829
Pt  12.753  4.905  -8.829
Pt  12.753  2.943  -6.867
Pt  10.791  4.905  -6.867
Pt  10.791  2.943  -4.905
Pt  12.753  4.905  -4.905
Pt  12.753  2.943  -2.943
Pt  10.791  4.905  -2.943
Pt  10.791  2.943  -0.981
Pt  12.753  4.905  -0.981
Pt  12.753  2.943  0.981
Pt  10.791  4.905  0.981
Pt  10.791  2.943  2.943
Pt  12.753  4.905  2.943
Pt  12.753  2.943  4.905
Pt  10.791  4.905  4.905
Pt  10.791  2.943  6.867
Pt  12.753  4.905  6.867
Pt  12.753  2.943  8.829
Pt  10.791  4.905  8.829
Pt  10.791  2.943  10.791
Pt  12.753  4.905  10.791
Pt  12.753  2.943  12.753
Pt  10.791  4.905  12.753
Pt  10.791  2.943  14.715
Pt  12.753  4.905  14.715
Pt  12.753  6.867  -14.715
Pt  10.791  8.829  -14.715
Pt  10.791  6.867  -12.753
Pt  12.753  8.829  -12.753
Pt  12.753  6.867  -10.791
Pt  10.791  8.829  -10.791
Pt  10.791  6.867  -8.829
Pt  12.753  8.829  -8.829
Pt  12.753  6.867  -6.867
Pt  10.791  8.829  -6.867
Pt  10.791  6.867  -4.905
Pt  12.753  8.829  -4.905
Pt  12.753  6.867  -2.943
Pt  10.791  8.829  -2.943
Pt  10.791  6.867  -0.981
Pt  12.753  8.829  -0.981
Pt  12.753  6.867  0.981
Pt  10.791  8.829  0.981
Pt  10.791  6.867  2.943
Pt  12.753  8.829  2.943
Pt  12.753  6.867  4.905
Pt  10.791  8.829  4.905
Pt  10.791  6.867  6.867
Pt  12.753  8.829  6.867
Pt  12.753  6.867  8.829
Pt  10.791  8.829  8.829
Pt  10.791  6.867  10.791
Pt  12.753  8.829  10.791
Pt  12.753  6.867  12.753
Pt  10.791  8.829  12.753
Pt  10.791  6.867  14.715
Pt  12.753  8.829  14.715
Pt  12.753  10.791  -14.715
Pt  10.791  12.753  -14.715
Pt  10.791  10.791  -12.753
Pt  12.753  12.753  -12.753
Pt  12.753  10.791  -10.791
Pt  10.791  12.753  -10.791
Pt  10.791  10.791  -8.829
Pt  12.753  12.753  -8.829
Pt  12.753  10.791  -6.867
Pt  10.791  12.753  -6.867
Pt  10.791  10.791  -4.905
Pt  12.753  12.753  -4.905
Pt  12.753  10.791  -2.943
Pt  10.791  12.753  -2.943
Pt  10.791  10.791  -0.981
Pt  12.753  12.753  -0.981
Pt  12.753  10.791  0.981
Pt  10.791  12.753  0.981
Pt  10.791  10.791  2.943
Pt  12.753  12.753  2.943
Pt  12.753  10.791  4.905
Pt  10.791  12.753  4.905
Pt  10.791  10.791  6.867
Pt  12.753  12.753  6.867
Pt  12.753  10.791  8.829
Pt  10.791  12.753  8.829
Pt  10.791  10.791  10.791
Pt  12.753  12.753  10.791
Pt  12.753  10.791  12.753
Pt  10.791  12.753  12.753
Pt  10.791  10.791  14.715
Pt  12.753  12.753  14.715
Pt  12.753  14.715  -14.715
Pt  10.791  14.715  -12.753
Pt  12.753  14.715  -10.791
Pt  10.791  14.715  -8.829
Pt  12.753  14.715  -6.867
Pt  10.791  14.715  -4.905
Pt  12.753  14.715  -2.943
Pt  10.791  14.715  -0.981
Pt  12.753  14.715  0.981
Pt  10.791  14.715  2.943
Pt  12.753  14.715  4.905
Pt  10.791  14.715  6.867
Pt  12.753  14.715  8.829
Pt  10.791  14.715  10.791
Pt  12.753  14.715  12.753
Pt  10.791  14.715  14.715
Pt  14.715  -14.715  -14.715
Pt  14.715  -14.715  -10.791
Pt  14.715  -14.715  -6.867
Pt  14.715  -14.715  -2.943
Pt  14.715  -14.715  0.981
Pt  14.715  -14.715  4.905
Pt  14.715  -14.715  8.829
Pt  14.715  -14.715  12.753
Pt  14.715  -10.791  -14.715
Pt  14.715  -12.753  -12.753
Pt  14.715  -10.791  -10.791
Pt  14.715  -12.753  -8.829
Pt  14.715  -10.791  -6.867
Pt  14.715  -12.753  -4.905
Pt  14.715  -10.791  -2.943
Pt  14.715  -12.753  -0.981
Pt  14.715  -10.791  0.981
Pt  14.715  -12.753  2.943
Pt  14.715  -10.791  4.905
Pt  14.715  -12.753  6.867
Pt  14.715  -10.791  8.829
Pt  14.715  -12.753  10.791
Pt  14.715  -10.791  12.753
Pt  14.715  -12.753  14.715
Pt  14.715  -6.867  -14.715
Pt  14.715  -8.829  -12.753
Pt  14.715  -6.867  -10.791
Pt  14.715  -8.829  -8.829
Pt  14.715  -6.867  -6.867
Pt  14.715  -8.829  -4.905
Pt  14.715  -6.867  -2.943
Pt  14.715  -8.829  -0.981
Pt  14.715  -6.867  0.981
Pt  14.715  -8.829  2.943
Pt  14.715  -6.867  4.905
Pt  14.715  -8.829  6.867
Pt  14.715  -6.867  8.829
Pt  14.715  -8.829  10.791
Pt  14.715  -6.867  12.753
Pt  14.715  -8.829  14.715
Pt  14.715  -2.943  -14.715
Pt  14.715  -4.905  -12.753
Pt  14.715  -2.943  -10.791
Pt  14.715  -4.905  -8.829
Pt  14.715  -2.943  -6.867
Pt  14.715  -4.905  -4.905
Pt  14.715  -2.943  -2.943
Pt  14.715  -4.905  -0.981
Pt  14.715  -2.943  0.981
Pt  14.715  -4.905  2.943
Pt  14.715  -2.943  4.905
Pt  14.715  -4.905  6.867
Pt  14.715  -2.943  8.829
Pt  14.715  -4.905  10.791
Pt  14.715  -2.943  12.753
Pt  14.715  -4.905  14.715
Pt  14.715  0.981  -14.715
Pt  14.715  -0.981  -12.753
Pt  14.715  0.981  -10.791
Pt  14.715  -0.981  -8.829
Pt  14.715  0.981  -6.867
Pt  14.715  -0.981  -4.905
Pt  14.715  0.981  -2.943
Pt  14.715  -0.981  -0.981
Pt  14.715  0.981  0.981
Pt  14.715  -0.981  2.943
Pt  14.715  0.981  4.905
Pt  14.715  -0.981  6.867
Pt  14.715  0.981  8.829
Pt  14.715  -0.981  10.791
Pt  14.715  0.981  12.753
Pt  14.715  -0.981  14.715
Pt  14.715  4.905  -14.715
Pt  14.715  2.943  -12.753
Pt  14.715  4.905  -10.791
Pt  14.715  2.943  -8.829
Pt  14.715  4.905  -6.867
Pt  14.715  2.943  -4.905
Pt  14.715  4.905  -2.943
Pt  14.715  2.943  -0.981
Pt  14.715  4.905  0.981
Pt  14.715  2.943  2.943
Pt  14.715  4.905  4.905
Pt  14.715  2.943  6.867
Pt  14.715  4.905  8.829
Pt  14.715  2.943  10.791
Pt  14.715  4.905  12.753
Pt  14.715  2.943  14.715
Pt  14.715  8.829  -14.715
Pt  14.715  6.867  -12.753
Pt  14.715  8.829  -10.791
Pt  14.715  6.867  -8.829
Pt  14.715  8.829  -6.867
Pt  14.715  6.867  -4.905
Pt  14.715  8.829  -2.943
Pt  14.715  6.867  -0.981
Pt  14.715  8.829  0.981
Pt  14.715  6.867  2.943
Pt  14.715  8.829  4.905
Pt  14.715  6.867  6.867
Pt  14.715  8.829  8.829
Pt  14.715  6.867  10.791
Pt  14.715  8.829  12.753
Pt  14.715  6.867  14.715
Pt  14.715  12.753  -14.715
Pt  14.715  10.791  -12.753
Pt  14.715  12.753  -10.791
Pt  14.715  10.791  -8.829
Pt  14.715  12.753  -6.867
Pt  14.715  10.791  -4.905
Pt  14.715  12.753  -2.943
Pt  14.715  10.791  -0.981
Pt  14.715  12.753  0.981
Pt  14.715  10.791  2.943
Pt  14.715  12.753  4.905
Pt  14.715  10.791  6.867
Pt  14.715  12.753  8.829
Pt  14.715  10.791  10.791
Pt  14.715  12.753  12.753
Pt  14.715  10.791  14.715
Pt  14.715  14.715  -12.753
Pt  14.715  14.715  -8.829
Pt  14.715  14.715  -4.905
Pt  14.715  14.715  -0.981
Pt  14.715  14.715  2.943
Pt  14.715  14.715  6.867
Pt  14.715  14.715  10.791
Pt  14.715  14.715  14.715
