6032
cluster_100_10.xyz
Pt  -26.487  -6.867  -8.829
Pt  -26.487  -8.829  -6.867
Pt  -28.449  -6.867  -6.867
Pt  -26.487  -6.867  -4.905
Pt  -26.487  -8.829  -2.943
Pt  -28.449  -6.867  -2.943
Pt  -26.487  -6.867  -0.981
Pt  -26.487  -8.829  0.981
Pt  -28.449  -6.867  0.981
Pt  -26.487  -6.867  2.943
Pt  -26.487  -8.829  4.905
Pt  -28.449  -6.867  4.905
Pt  -26.487  -6.867  6.867
Pt  -26.487  -8.829  8.829
Pt  -26.487  -2.943  -8.829
Pt  -26.487  -4.905  -6.867
Pt  -28.449  -2.943  -6.867
Pt  -28.449  -4.905  -4.905
Pt  -26.487  -2.943  -4.905
Pt  -26.487  -4.905  -2.943
Pt  -28.449  -2.943  -2.943
Pt  -28.449  -4.905  -0.981
Pt  -26.487  -2.943  -0.981
Pt  -26.487  -4.905  0.981
Pt  -28.449  -2.943  0.981
Pt  -28.449  -4.905  2.943
Pt  -26.487  -2.943  2.943
Pt  -26.487  -4.905  4.905
Pt  -28.449  -2.943  4.905
Pt  -28.449  -4.905  6.867
Pt  -26.487  -2.943  6.867
Pt  -26.487  -4.905  8.829
Pt  -26.487  0.981  -8.829
Pt  -26.487  -0.981  -6.867
Pt  -28.449  0.981  -6.867
Pt  -28.449  -0.981  -4.905
Pt  -26.487  0.981  -4.905
Pt  -26.487  -0.981  -2.943
Pt  -28.449  0.981  -2.943
Pt  -28.449  -0.981  -0.981
Pt  -26.487  0.981  -0.981
Pt  -26.487  -0.981  0.981
Pt  -28.449  0.981  0.981
Pt  -28.449  -0.981  2.943
Pt  -26.487  0.981  2.943
Pt  -26.487  -0.981  4.905
Pt  -28.449  0.981  4.905
Pt  -28.449  -0.981  6.867
Pt  -26.487  0.981  6.867
Pt  -26.487  -0.981  8.829
Pt  -26.487  4.905  -8.829
Pt  -26.487  2.943  -6.867
Pt  -28.449  4.905  -6.867
Pt  -28.449  2.943  -4.905
Pt  -26.487  4.905  -4.905
Pt  -26.487  2.943  -2.943
Pt  -28.449  4.905  -2.943
Pt  -28.449  2.943  -0.981
Pt  -26.487  4.905  -0.981
Pt  -26.487  2.943  0.981
Pt  -28.449  4.905  0.981
Pt  -28.449  2.943  2.943
Pt  -26.487  4.905  2.943
Pt  -26.487  2.943  4.905
Pt  -28.449  4.905  4.905
Pt  -28.449  2.943  6.867
Pt  -26.487  4.905  6.867
Pt  -26.487  2.943  8.829
Pt  -26.487  8.829  -8.829
Pt  -26.487  6.867  -6.867
Pt  -28.449  6.867  -4.905
Pt  -26.487  8.829  -4.905
Pt  -26.487  6.867  -2.943
Pt  -28.449  6.867  -0.981
Pt  -26.487  8.829  -0.981
Pt  -26.487  6.867  0.981
Pt  -28.449  6.867  2.943
Pt  -26.487  8.829  2.943
Pt  -26.487  6.867  4.905
Pt  -28.449  6.867  6.867
Pt  -26.487  8.829  6.867
Pt  -26.487  6.867  8.829
Pt  -22.563  -10.791  -12.753
Pt  -22.563  -12.753  -10.791
Pt  -24.525  -10.791  -10.791
Pt  -22.563  -10.791  -8.829
Pt  -22.563  -12.753  -6.867
Pt  -24.525  -10.791  -6.867
Pt  -22.563  -10.791  -4.905
Pt  -22.563  -12.753  -2.943
Pt  -24.525  -10.791  -2.943
Pt  -22.563  -10.791  -0.981
Pt  -22.563  -12.753  0.981
Pt  -24.525  -10.791  0.981
Pt  -22.563  -10.791  2.943
Pt  -22.563  -12.753  4.905
Pt  -24.525  -10.791  4.905
Pt  -22.563  -10.791  6.867
Pt  -22.563  -12.753  8.829
Pt  -24.525  -10.791  8.829
Pt  -22.563  -10.791  10.791
Pt  -22.563  -6.867  -12.753
Pt  -22.563  -8.829  -10.791
Pt  -24.525  -6.867  -10.791
Pt  -24.525  -8.829  -8.829
Pt  -22.563  -6.867  -8.829
Pt  -22.563  -8.829  -6.867
Pt  -24.525  -6.867  -6.867
Pt  -24.525  -8.829  -4.905
Pt  -22.563  -6.867  -4.905
Pt  -22.563  -8.829  -2.943
Pt  -24.525  -6.867  -2.943
Pt  -24.525  -8.829  -0.981
Pt  -22.563  -6.867  -0.981
Pt  -22.563  -8.829  0.981
Pt  -24.525  -6.867  0.981
Pt  -24.525  -8.829  2.943
Pt  -22.563  -6.867  2.943
Pt  -22.563  -8.829  4.905
Pt  -24.525  -6.867  4.905
Pt  -24.525  -8.829  6.867
Pt  -22.563  -6.867  6.867
Pt  -22.563  -8.829  8.829
Pt  -24.525  -6.867  8.829
Pt  -24.525  -8.829  10.791
Pt  -22.563  -6.867  10.791
Pt  -22.563  -8.829  12.753
Pt  -22.563  -2.943  -12.753
Pt  -22.563  -4.905  -10.791
Pt  -24.525  -2.943  -10.791
Pt  -24.525  -4.905  -8.829
Pt  -22.563  -2.943  -8.829
Pt  -22.563  -4.905  -6.867
Pt  -24.525  -2.943  -6.867
Pt  -24.525  -4.905  -4.905
Pt  -22.563  -2.943  -4.905
Pt  -22.563  -4.905  -2.943
Pt  -24.525  -2.943  -2.943
Pt  -24.525  -4.905  -0.981
Pt  -22.563  -2.943  -0.981
Pt  -22.563  -4.905  0.981
Pt  -24.525  -2.943  0.981
Pt  -24.525  -4.905  2.943
Pt  -22.563  -2.943  2.943
Pt  -22.563  -4.905  4.905
Pt  -24.525  -2.943  4.905
Pt  -24.525  -4.905  6.867
Pt  -22.563  -2.943  6.867
Pt  -22.563  -4.905  8.829
Pt  -24.525  -2.943  8.829
Pt  -24.525  -4.905  10.791
Pt  -22.563  -2.943  10.791
Pt  -22.563  -4.905  12.753
Pt  -22.563  0.981  -12.753
Pt  -22.563  -0.981  -10.791
Pt  -24.525  0.981  -10.791
Pt  -24.525  -0.981  -8.829
Pt  -22.563  0.981  -8.829
Pt  -22.563  -0.981  -6.867
Pt  -24.525  0.981  -6.867
Pt  -24.525  -0.981  -4.905
Pt  -22.563  0.981  -4.905
Pt  -22.563  -0.981  -2.943
Pt  -24.525  0.981  -2.943
Pt  -24.525  -0.981  -0.981
Pt  -22.563  0.981  -0.981
Pt  -22.563  -0.981  0.981
Pt  -24.525  0.981  0.981
Pt  -24.525  -0.981  2.943
Pt  -22.563  0.981  2.943
Pt  -22.563  -0.981  4.905
Pt  -24.525  0.981  4.905
Pt  -24.525  -0.981  6.867
Pt  -22.563  0.981  6.867
Pt  -22.563  -0.981  8.829
Pt  -24.525  0.981  8.829
Pt  -24.525  -0.981  10.791
Pt  -22.563  0.981  10.791
Pt  -22.563  -0.981  12.753
Pt  -22.563  4.905  -12.753
Pt  -22.563  2.943  -10.791
Pt  -24.525  4.905  -10.791
Pt  -24.525  2.943  -8.829
Pt  -22.563  4.905  -8.829
Pt  -22.563  2.943  -6.867
Pt  -24.525  4.905  -6.867
Pt  -24.525  2.943  -4.905
Pt  -22.563  4.905  -4.905
Pt  -22.563  2.943  -2.943
Pt  -24.525  4.905  -2.943
Pt  -24.525  2.943  -0.981
Pt  -22.563  4.905  -0.981
Pt  -22.563  2.943  0.981
Pt  -24.525  4.905  0.981
Pt  -24.525  2.943  2.943
Pt  -22.563  4.905  2.943
Pt  -22.563  2.943  4.905
Pt  -24.525  4.905  4.905
Pt  -24.525  2.943  6.867
Pt  -22.563  4.905  6.867
Pt  -22.563  2.943  8.829
Pt  -24.525  4.905  8.829
Pt  -24.525  2.943  10.791
Pt  -22.563  4.905  10.791
Pt  -22.563  2.943  12.753
Pt  -22.563  8.829  -12.753
Pt  -22.563  6.867  -10.791
Pt  -24.525  8.829  -10.791
Pt  -24.525  6.867  -8.829
Pt  -22.563  8.829  -8.829
Pt  -22.563  6.867  -6.867
Pt  -24.525  8.829  -6.867
Pt  -24.525  6.867  -4.905
Pt  -22.563  8.829  -4.905
Pt  -22.563  6.867  -2.943
Pt  -24.525  8.829  -2.943
Pt  -24.525  6.867  -0.981
Pt  -22.563  8.829  -0.981
Pt  -22.563  6.867  0.981
Pt  -24.525  8.829  0.981
Pt  -24.525  6.867  2.943
Pt  -22.563  8.829  2.943
Pt  -22.563  6.867  4.905
Pt  -24.525  8.829  4.905
Pt  -24.525  6.867  6.867
Pt  -22.563  8.829  6.867
Pt  -22.563  6.867  8.829
Pt  -24.525  8.829  8.829
Pt  -24.525  6.867  10.791
Pt  -22.563  8.829  10.791
Pt  -22.563  6.867  12.753
Pt  -22.563  10.791  -10.791
Pt  -24.525  10.791  -8.829
Pt  -22.563  12.753  -8.829
Pt  -22.563  10.791  -6.867
Pt  -24.525  10.791  -4.905
Pt  -22.563  12.753  -4.905
Pt  -22.563  10.791  -2.943
Pt  -24.525  10.791  -0.981
Pt  -22.563  12.753  -0.981
Pt  -22.563  10.791  0.981
Pt  -24.525  10.791  2.943
Pt  -22.563  12.753  2.943
Pt  -22.563  10.791  4.905
Pt  -24.525  10.791  6.867
Pt  -22.563  12.753  6.867
Pt  -22.563  10.791  8.829
Pt  -24.525  10.791  10.791
Pt  -22.563  12.753  10.791
Pt  -22.563  10.791  12.753
Pt  -18.639  -14.715  -12.753
Pt  -18.639  -16.677  -10.791
Pt  -20.601  -14.715  -10.791
Pt  -18.639  -14.715  -8.829
Pt  -18.639  -16.677  -6.867
Pt  -20.601  -14.715  -6.867
Pt  -18.639  -14.715  -4.905
Pt  -18.639  -16.677  -2.943
Pt  -20.601  -14.715  -2.943
Pt  -18.639  -14.715  -0.981
Pt  -18.639  -16.677  0.981
Pt  -20.601  -14.715  0.981
Pt  -18.639  -14.715  2.943
Pt  -18.639  -16.677  4.905
Pt  -20.601  -14.715  4.905
Pt  -18.639  -14.715  6.867
Pt  -18.639  -16.677  8.829
Pt  -20.601  -14.715  8.829
Pt  -18.639  -14.715  10.791
Pt  -18.639  -10.791  -16.677
Pt  -18.639  -12.753  -14.715
Pt  -20.601  -10.791  -14.715
Pt  -20.601  -12.753  -12.753
Pt  -18.639  -10.791  -12.753
Pt  -18.639  -12.753  -10.791
Pt  -20.601  -10.791  -10.791
Pt  -20.601  -12.753  -8.829
Pt  -18.639  -10.791  -8.829
Pt  -18.639  -12.753  -6.867
Pt  -20.601  -10.791  -6.867
Pt  -20.601  -12.753  -4.905
Pt  -18.639  -10.791  -4.905
Pt  -18.639  -12.753  -2.943
Pt  -20.601  -10.791  -2.943
Pt  -20.601  -12.753  -0.981
Pt  -18.639  -10.791  -0.981
Pt  -18.639  -12.753  0.981
Pt  -20.601  -10.791  0.981
Pt  -20.601  -12.753  2.943
Pt  -18.639  -10.791  2.943
Pt  -18.639  -12.753  4.905
Pt  -20.601  -10.791  4.905
Pt  -20.601  -12.753  6.867
Pt  -18.639  -10.791  6.867
Pt  -18.639  -12.753  8.829
Pt  -20.601  -10.791  8.829
Pt  -20.601  -12.753  10.791
Pt  -18.639  -10.791  10.791
Pt  -18.639  -12.753  12.753
Pt  -20.601  -10.791  12.753
Pt  -18.639  -10.791  14.715
Pt  -18.639  -6.867  -16.677
Pt  -18.639  -8.829  -14.715
Pt  -20.601  -6.867  -14.715
Pt  -20.601  -8.829  -12.753
Pt  -18.639  -6.867  -12.753
Pt  -18.639  -8.829  -10.791
Pt  -20.601  -6.867  -10.791
Pt  -20.601  -8.829  -8.829
Pt  -18.639  -6.867  -8.829
Pt  -18.639  -8.829  -6.867
Pt  -20.601  -6.867  -6.867
Pt  -20.601  -8.829  -4.905
Pt  -18.639  -6.867  -4.905
Pt  -18.639  -8.829  -2.943
Pt  -20.601  -6.867  -2.943
Pt  -20.601  -8.829  -0.981
Pt  -18.639  -6.867  -0.981
Pt  -18.639  -8.829  0.981
Pt  -20.601  -6.867  0.981
Pt  -20.601  -8.829  2.943
Pt  -18.639  -6.867  2.943
Pt  -18.639  -8.829  4.905
Pt  -20.601  -6.867  4.905
Pt  -20.601  -8.829  6.867
Pt  -18.639  -6.867  6.867
Pt  -18.639  -8.829  8.829
Pt  -20.601  -6.867  8.829
Pt  -20.601  -8.829  10.791
Pt  -18.639  -6.867  10.791
Pt  -18.639  -8.829  12.753
Pt  -20.601  -6.867  12.753
Pt  -20.601  -8.829  14.715
Pt  -18.639  -6.867  14.715
Pt  -18.639  -8.829  16.677
Pt  -18.639  -2.943  -16.677
Pt  -18.639  -4.905  -14.715
Pt  -20.601  -2.943  -14.715
Pt  -20.601  -4.905  -12.753
Pt  -18.639  -2.943  -12.753
Pt  -18.639  -4.905  -10.791
Pt  -20.601  -2.943  -10.791
Pt  -20.601  -4.905  -8.829
Pt  -18.639  -2.943  -8.829
Pt  -18.639  -4.905  -6.867
Pt  -20.601  -2.943  -6.867
Pt  -20.601  -4.905  -4.905
Pt  -18.639  -2.943  -4.905
Pt  -18.639  -4.905  -2.943
Pt  -20.601  -2.943  -2.943
Pt  -20.601  -4.905  -0.981
Pt  -18.639  -2.943  -0.981
Pt  -18.639  -4.905  0.981
Pt  -20.601  -2.943  0.981
Pt  -20.601  -4.905  2.943
Pt  -18.639  -2.943  2.943
Pt  -18.639  -4.905  4.905
Pt  -20.601  -2.943  4.905
Pt  -20.601  -4.905  6.867
Pt  -18.639  -2.943  6.867
Pt  -18.639  -4.905  8.829
Pt  -20.601  -2.943  8.829
Pt  -20.601  -4.905  10.791
Pt  -18.639  -2.943  10.791
Pt  -18.639  -4.905  12.753
Pt  -20.601  -2.943  12.753
Pt  -20.601  -4.905  14.715
Pt  -18.639  -2.943  14.715
Pt  -18.639  -4.905  16.677
Pt  -18.639  0.981  -16.677
Pt  -18.639  -0.981  -14.715
Pt  -20.601  0.981  -14.715
Pt  -20.601  -0.981  -12.753
Pt  -18.639  0.981  -12.753
Pt  -18.639  -0.981  -10.791
Pt  -20.601  0.981  -10.791
Pt  -20.601  -0.981  -8.829
Pt  -18.639  0.981  -8.829
Pt  -18.639  -0.981  -6.867
Pt  -20.601  0.981  -6.867
Pt  -20.601  -0.981  -4.905
Pt  -18.639  0.981  -4.905
Pt  -18.639  -0.981  -2.943
Pt  -20.601  0.981  -2.943
Pt  -20.601  -0.981  -0.981
Pt  -18.639  0.981  -0.981
Pt  -18.639  -0.981  0.981
Pt  -20.601  0.981  0.981
Pt  -20.601  -0.981  2.943
Pt  -18.639  0.981  2.943
Pt  -18.639  -0.981  4.905
Pt  -20.601  0.981  4.905
Pt  -20.601  -0.981  6.867
Pt  -18.639  0.981  6.867
Pt  -18.639  -0.981  8.829
Pt  -20.601  0.981  8.829
Pt  -20.601  -0.981  10.791
Pt  -18.639  0.981  10.791
Pt  -18.639  -0.981  12.753
Pt  -20.601  0.981  12.753
Pt  -20.601  -0.981  14.715
Pt  -18.639  0.981  14.715
Pt  -18.639  -0.981  16.677
Pt  -18.639  4.905  -16.677
Pt  -18.639  2.943  -14.715
Pt  -20.601  4.905  -14.715
Pt  -20.601  2.943  -12.753
Pt  -18.639  4.905  -12.753
Pt  -18.639  2.943  -10.791
Pt  -20.601  4.905  -10.791
Pt  -20.601  2.943  -8.829
Pt  -18.639  4.905  -8.829
Pt  -18.639  2.943  -6.867
Pt  -20.601  4.905  -6.867
Pt  -20.601  2.943  -4.905
Pt  -18.639  4.905  -4.905
Pt  -18.639  2.943  -2.943
Pt  -20.601  4.905  -2.943
Pt  -20.601  2.943  -0.981
Pt  -18.639  4.905  -0.981
Pt  -18.639  2.943  0.981
Pt  -20.601  4.905  0.981
Pt  -20.601  2.943  2.943
Pt  -18.639  4.905  2.943
Pt  -18.639  2.943  4.905
Pt  -20.601  4.905  4.905
Pt  -20.601  2.943  6.867
Pt  -18.639  4.905  6.867
Pt  -18.639  2.943  8.829
Pt  -20.601  4.905  8.829
Pt  -20.601  2.943  10.791
Pt  -18.639  4.905  10.791
Pt  -18.639  2.943  12.753
Pt  -20.601  4.905  12.753
Pt  -20.601  2.943  14.715
Pt  -18.639  4.905  14.715
Pt  -18.639  2.943  16.677
Pt  -18.639  8.829  -16.677
Pt  -18.639  6.867  -14.715
Pt  -20.601  8.829  -14.715
Pt  -20.601  6.867  -12.753
Pt  -18.639  8.829  -12.753
Pt  -18.639  6.867  -10.791
Pt  -20.601  8.829  -10.791
Pt  -20.601  6.867  -8.829
Pt  -18.639  8.829  -8.829
Pt  -18.639  6.867  -6.867
Pt  -20.601  8.829  -6.867
Pt  -20.601  6.867  -4.905
Pt  -18.639  8.829  -4.905
Pt  -18.639  6.867  -2.943
Pt  -20.601  8.829  -2.943
Pt  -20.601  6.867  -0.981
Pt  -18.639  8.829  -0.981
Pt  -18.639  6.867  0.981
Pt  -20.601  8.829  0.981
Pt  -20.601  6.867  2.943
Pt  -18.639  8.829  2.943
Pt  -18.639  6.867  4.905
Pt  -20.601  8.829  4.905
Pt  -20.601  6.867  6.867
Pt  -18.639  8.829  6.867
Pt  -18.639  6.867  8.829
Pt  -20.601  8.829  8.829
Pt  -20.601  6.867  10.791
Pt  -18.639  8.829  10.791
Pt  -18.639  6.867  12.753
Pt  -20.601  8.829  12.753
Pt  -20.601  6.867  14.715
Pt  -18.639  8.829  14.715
Pt  -18.639  6.867  16.677
Pt  -18.639  10.791  -14.715
Pt  -20.601  10.791  -12.753
Pt  -18.639  12.753  -12.753
Pt  -18.639  10.791  -10.791
Pt  -20.601  12.753  -10.791
Pt  -20.601  10.791  -8.829
Pt  -18.639  12.753  -8.829
Pt  -18.639  10.791  -6.867
Pt  -20.601  12.753  -6.867
Pt  -20.601  10.791  -4.905
Pt  -18.639  12.753  -4.905
Pt  -18.639  10.791  -2.943
Pt  -20.601  12.753  -2.943
Pt  -20.601  10.791  -0.981
Pt  -18.639  12.753  -0.981
Pt  -18.639  10.791  0.981
Pt  -20.601  12.753  0.981
Pt  -20.601  10.791  2.943
Pt  -18.639  12.753  2.943
Pt  -18.639  10.791  4.905
Pt  -20.601  12.753  4.905
Pt  -20.601  10.791  6.867
Pt  -18.639  12.753  6.867
Pt  -18.639  10.791  8.829
Pt  -20.601  12.753  8.829
Pt  -20.601  10.791  10.791
Pt  -18.639  12.753  10.791
Pt  -18.639  10.791  12.753
Pt  -20.601  12.753  12.753
Pt  -20.601  10.791  14.715
Pt  -18.639  12.753  14.715
Pt  -18.639  10.791  16.677
Pt  -18.639  14.715  -10.791
Pt  -20.601  14.715  -8.829
Pt  -18.639  16.677  -8.829
Pt  -18.639  14.715  -6.867
Pt  -20.601  14.715  -4.905
Pt  -18.639  16.677  -4.905
Pt  -18.639  14.715  -2.943
Pt  -20.601  14.715  -0.981
Pt  -18.639  16.677  -0.981
Pt  -18.639  14.715  0.981
Pt  -20.601  14.715  2.943
Pt  -18.639  16.677  2.943
Pt  -18.639  14.715  4.905
Pt  -20.601  14.715  6.867
Pt  -18.639  16.677  6.867
Pt  -18.639  14.715  8.829
Pt  -20.601  14.715  10.791
Pt  -18.639  16.677  10.791
Pt  -18.639  14.715  12.753
Pt  -14.715  -18.639  -12.753
Pt  -14.715  -20.601  -10.791
Pt  -16.677  -18.639  -10.791
Pt  -14.715  -18.639  -8.829
Pt  -14.715  -20.601  -6.867
Pt  -16.677  -18.639  -6.867
Pt  -14.715  -18.639  -4.905
Pt  -14.715  -20.601  -2.943
Pt  -16.677  -18.639  -2.943
Pt  -14.715  -18.639  -0.981
Pt  -14.715  -20.601  0.981
Pt  -16.677  -18.639  0.981
Pt  -14.715  -18.639  2.943
Pt  -14.715  -20.601  4.905
Pt  -16.677  -18.639  4.905
Pt  -14.715  -18.639  6.867
Pt  -14.715  -20.601  8.829
Pt  -16.677  -18.639  8.829
Pt  -14.715  -18.639  10.791
Pt  -14.715  -14.715  -16.677
Pt  -14.715  -16.677  -14.715
Pt  -16.677  -14.715  -14.715
Pt  -16.677  -16.677  -12.753
Pt  -14.715  -14.715  -12.753
Pt  -14.715  -16.677  -10.791
Pt  -16.677  -14.715  -10.791
Pt  -16.677  -16.677  -8.829
Pt  -14.715  -14.715  -8.829
Pt  -14.715  -16.677  -6.867
Pt  -16.677  -14.715  -6.867
Pt  -16.677  -16.677  -4.905
Pt  -14.715  -14.715  -4.905
Pt  -14.715  -16.677  -2.943
Pt  -16.677  -14.715  -2.943
Pt  -16.677  -16.677  -0.981
Pt  -14.715  -14.715  -0.981
Pt  -14.715  -16.677  0.981
Pt  -16.677  -14.715  0.981
Pt  -16.677  -16.677  2.943
Pt  -14.715  -14.715  2.943
Pt  -14.715  -16.677  4.905
Pt  -16.677  -14.715  4.905
Pt  -16.677  -16.677  6.867
Pt  -14.715  -14.715  6.867
Pt  -14.715  -16.677  8.829
Pt  -16.677  -14.715  8.829
Pt  -16.677  -16.677  10.791
Pt  -14.715  -14.715  10.791
Pt  -14.715  -16.677  12.753
Pt  -16.677  -14.715  12.753
Pt  -14.715  -14.715  14.715
Pt  -14.715  -10.791  -20.601
Pt  -14.715  -12.753  -18.639
Pt  -16.677  -10.791  -18.639
Pt  -16.677  -12.753  -16.677
Pt  -14.715  -10.791  -16.677
Pt  -14.715  -12.753  -14.715
Pt  -16.677  -10.791  -14.715
Pt  -16.677  -12.753  -12.753
Pt  -14.715  -10.791  -12.753
Pt  -14.715  -12.753  -10.791
Pt  -16.677  -10.791  -10.791
Pt  -16.677  -12.753  -8.829
Pt  -14.715  -10.791  -8.829
Pt  -14.715  -12.753  -6.867
Pt  -16.677  -10.791  -6.867
Pt  -16.677  -12.753  -4.905
Pt  -14.715  -10.791  -4.905
Pt  -14.715  -12.753  -2.943
Pt  -16.677  -10.791  -2.943
Pt  -16.677  -12.753  -0.981
Pt  -14.715  -10.791  -0.981
Pt  -14.715  -12.753  0.981
Pt  -16.677  -10.791  0.981
Pt  -16.677  -12.753  2.943
Pt  -14.715  -10.791  2.943
Pt  -14.715  -12.753  4.905
Pt  -16.677  -10.791  4.905
Pt  -16.677  -12.753  6.867
Pt  -14.715  -10.791  6.867
Pt  -14.715  -12.753  8.829
Pt  -16.677  -10.791  8.829
Pt  -16.677  -12.753  10.791
Pt  -14.715  -10.791  10.791
Pt  -14.715  -12.753  12.753
Pt  -16.677  -10.791  12.753
Pt  -16.677  -12.753  14.715
Pt  -14.715  -10.791  14.715
Pt  -14.715  -12.753  16.677
Pt  -16.677  -10.791  16.677
Pt  -14.715  -10.791  18.639
Pt  -14.715  -6.867  -20.601
Pt  -14.715  -8.829  -18.639
Pt  -16.677  -6.867  -18.639
Pt  -16.677  -8.829  -16.677
Pt  -14.715  -6.867  -16.677
Pt  -14.715  -8.829  -14.715
Pt  -16.677  -6.867  -14.715
Pt  -16.677  -8.829  -12.753
Pt  -14.715  -6.867  -12.753
Pt  -14.715  -8.829  -10.791
Pt  -16.677  -6.867  -10.791
Pt  -16.677  -8.829  -8.829
Pt  -14.715  -6.867  -8.829
Pt  -14.715  -8.829  -6.867
Pt  -16.677  -6.867  -6.867
Pt  -16.677  -8.829  -4.905
Pt  -14.715  -6.867  -4.905
Pt  -14.715  -8.829  -2.943
Pt  -16.677  -6.867  -2.943
Pt  -16.677  -8.829  -0.981
Pt  -14.715  -6.867  -0.981
Pt  -14.715  -8.829  0.981
Pt  -16.677  -6.867  0.981
Pt  -16.677  -8.829  2.943
Pt  -14.715  -6.867  2.943
Pt  -14.715  -8.829  4.905
Pt  -16.677  -6.867  4.905
Pt  -16.677  -8.829  6.867
Pt  -14.715  -6.867  6.867
Pt  -14.715  -8.829  8.829
Pt  -16.677  -6.867  8.829
Pt  -16.677  -8.829  10.791
Pt  -14.715  -6.867  10.791
Pt  -14.715  -8.829  12.753
Pt  -16.677  -6.867  12.753
Pt  -16.677  -8.829  14.715
Pt  -14.715  -6.867  14.715
Pt  -14.715  -8.829  16.677
Pt  -16.677  -6.867  16.677
Pt  -16.677  -8.829  18.639
Pt  -14.715  -6.867  18.639
Pt  -14.715  -8.829  20.601
Pt  -14.715  -2.943  -20.601
Pt  -14.715  -4.905  -18.639
Pt  -16.677  -2.943  -18.639
Pt  -16.677  -4.905  -16.677
Pt  -14.715  -2.943  -16.677
Pt  -14.715  -4.905  -14.715
Pt  -16.677  -2.943  -14.715
Pt  -16.677  -4.905  -12.753
Pt  -14.715  -2.943  -12.753
Pt  -14.715  -4.905  -10.791
Pt  -16.677  -2.943  -10.791
Pt  -16.677  -4.905  -8.829
Pt  -14.715  -2.943  -8.829
Pt  -14.715  -4.905  -6.867
Pt  -16.677  -2.943  -6.867
Pt  -16.677  -4.905  -4.905
Pt  -14.715  -2.943  -4.905
Pt  -14.715  -4.905  -2.943
Pt  -16.677  -2.943  -2.943
Pt  -16.677  -4.905  -0.981
Pt  -14.715  -2.943  -0.981
Pt  -14.715  -4.905  0.981
Pt  -16.677  -2.943  0.981
Pt  -16.677  -4.905  2.943
Pt  -14.715  -2.943  2.943
Pt  -14.715  -4.905  4.905
Pt  -16.677  -2.943  4.905
Pt  -16.677  -4.905  6.867
Pt  -14.715  -2.943  6.867
Pt  -14.715  -4.905  8.829
Pt  -16.677  -2.943  8.829
Pt  -16.677  -4.905  10.791
Pt  -14.715  -2.943  10.791
Pt  -14.715  -4.905  12.753
Pt  -16.677  -2.943  12.753
Pt  -16.677  -4.905  14.715
Pt  -14.715  -2.943  14.715
Pt  -14.715  -4.905  16.677
Pt  -16.677  -2.943  16.677
Pt  -16.677  -4.905  18.639
Pt  -14.715  -2.943  18.639
Pt  -14.715  -4.905  20.601
Pt  -14.715  0.981  -20.601
Pt  -14.715  -0.981  -18.639
Pt  -16.677  0.981  -18.639
Pt  -16.677  -0.981  -16.677
Pt  -14.715  0.981  -16.677
Pt  -14.715  -0.981  -14.715
Pt  -16.677  0.981  -14.715
Pt  -16.677  -0.981  -12.753
Pt  -14.715  0.981  -12.753
Pt  -14.715  -0.981  -10.791
Pt  -16.677  0.981  -10.791
Pt  -16.677  -0.981  -8.829
Pt  -14.715  0.981  -8.829
Pt  -14.715  -0.981  -6.867
Pt  -16.677  0.981  -6.867
Pt  -16.677  -0.981  -4.905
Pt  -14.715  0.981  -4.905
Pt  -14.715  -0.981  -2.943
Pt  -16.677  0.981  -2.943
Pt  -16.677  -0.981  -0.981
Pt  -14.715  0.981  -0.981
Pt  -14.715  -0.981  0.981
Pt  -16.677  0.981  0.981
Pt  -16.677  -0.981  2.943
Pt  -14.715  0.981  2.943
Pt  -14.715  -0.981  4.905
Pt  -16.677  0.981  4.905
Pt  -16.677  -0.981  6.867
Pt  -14.715  0.981  6.867
Pt  -14.715  -0.981  8.829
Pt  -16.677  0.981  8.829
Pt  -16.677  -0.981  10.791
Pt  -14.715  0.981  10.791
Pt  -14.715  -0.981  12.753
Pt  -16.677  0.981  12.753
Pt  -16.677  -0.981  14.715
Pt  -14.715  0.981  14.715
Pt  -14.715  -0.981  16.677
Pt  -16.677  0.981  16.677
Pt  -16.677  -0.981  18.639
Pt  -14.715  0.981  18.639
Pt  -14.715  -0.981  20.601
Pt  -14.715  4.905  -20.601
Pt  -14.715  2.943  -18.639
Pt  -16.677  4.905  -18.639
Pt  -16.677  2.943  -16.677
Pt  -14.715  4.905  -16.677
Pt  -14.715  2.943  -14.715
Pt  -16.677  4.905  -14.715
Pt  -16.677  2.943  -12.753
Pt  -14.715  4.905  -12.753
Pt  -14.715  2.943  -10.791
Pt  -16.677  4.905  -10.791
Pt  -16.677  2.943  -8.829
Pt  -14.715  4.905  -8.829
Pt  -14.715  2.943  -6.867
Pt  -16.677  4.905  -6.867
Pt  -16.677  2.943  -4.905
Pt  -14.715  4.905  -4.905
Pt  -14.715  2.943  -2.943
Pt  -16.677  4.905  -2.943
Pt  -16.677  2.943  -0.981
Pt  -14.715  4.905  -0.981
Pt  -14.715  2.943  0.981
Pt  -16.677  4.905  0.981
Pt  -16.677  2.943  2.943
Pt  -14.715  4.905  2.943
Pt  -14.715  2.943  4.905
Pt  -16.677  4.905  4.905
Pt  -16.677  2.943  6.867
Pt  -14.715  4.905  6.867
Pt  -14.715  2.943  8.829
Pt  -16.677  4.905  8.829
Pt  -16.677  2.943  10.791
Pt  -14.715  4.905  10.791
Pt  -14.715  2.943  12.753
Pt  -16.677  4.905  12.753
Pt  -16.677  2.943  14.715
Pt  -14.715  4.905  14.715
Pt  -14.715  2.943  16.677
Pt  -16.677  4.905  16.677
Pt  -16.677  2.943  18.639
Pt  -14.715  4.905  18.639
Pt  -14.715  2.943  20.601
Pt  -14.715  8.829  -20.601
Pt  -14.715  6.867  -18.639
Pt  -16.677  8.829  -18.639
Pt  -16.677  6.867  -16.677
Pt  -14.715  8.829  -16.677
Pt  -14.715  6.867  -14.715
Pt  -16.677  8.829  -14.715
Pt  -16.677  6.867  -12.753
Pt  -14.715  8.829  -12.753
Pt  -14.715  6.867  -10.791
Pt  -16.677  8.829  -10.791
Pt  -16.677  6.867  -8.829
Pt  -14.715  8.829  -8.829
Pt  -14.715  6.867  -6.867
Pt  -16.677  8.829  -6.867
Pt  -16.677  6.867  -4.905
Pt  -14.715  8.829  -4.905
Pt  -14.715  6.867  -2.943
Pt  -16.677  8.829  -2.943
Pt  -16.677  6.867  -0.981
Pt  -14.715  8.829  -0.981
Pt  -14.715  6.867  0.981
Pt  -16.677  8.829  0.981
Pt  -16.677  6.867  2.943
Pt  -14.715  8.829  2.943
Pt  -14.715  6.867  4.905
Pt  -16.677  8.829  4.905
Pt  -16.677  6.867  6.867
Pt  -14.715  8.829  6.867
Pt  -14.715  6.867  8.829
Pt  -16.677  8.829  8.829
Pt  -16.677  6.867  10.791
Pt  -14.715  8.829  10.791
Pt  -14.715  6.867  12.753
Pt  -16.677  8.829  12.753
Pt  -16.677  6.867  14.715
Pt  -14.715  8.829  14.715
Pt  -14.715  6.867  16.677
Pt  -16.677  8.829  16.677
Pt  -16.677  6.867  18.639
Pt  -14.715  8.829  18.639
Pt  -14.715  6.867  20.601
Pt  -14.715  10.791  -18.639
Pt  -16.677  10.791  -16.677
Pt  -14.715  12.753  -16.677
Pt  -14.715  10.791  -14.715
Pt  -16.677  12.753  -14.715
Pt  -16.677  10.791  -12.753
Pt  -14.715  12.753  -12.753
Pt  -14.715  10.791  -10.791
Pt  -16.677  12.753  -10.791
Pt  -16.677  10.791  -8.829
Pt  -14.715  12.753  -8.829
Pt  -14.715  10.791  -6.867
Pt  -16.677  12.753  -6.867
Pt  -16.677  10.791  -4.905
Pt  -14.715  12.753  -4.905
Pt  -14.715  10.791  -2.943
Pt  -16.677  12.753  -2.943
Pt  -16.677  10.791  -0.981
Pt  -14.715  12.753  -0.981
Pt  -14.715  10.791  0.981
Pt  -16.677  12.753  0.981
Pt  -16.677  10.791  2.943
Pt  -14.715  12.753  2.943
Pt  -14.715  10.791  4.905
Pt  -16.677  12.753  4.905
Pt  -16.677  10.791  6.867
Pt  -14.715  12.753  6.867
Pt  -14.715  10.791  8.829
Pt  -16.677  12.753  8.829
Pt  -16.677  10.791  10.791
Pt  -14.715  12.753  10.791
Pt  -14.715  10.791  12.753
Pt  -16.677  12.753  12.753
Pt  -16.677  10.791  14.715
Pt  -14.715  12.753  14.715
Pt  -14.715  10.791  16.677
Pt  -16.677  12.753  16.677
Pt  -16.677  10.791  18.639
Pt  -14.715  12.753  18.639
Pt  -14.715  10.791  20.601
Pt  -14.715  14.715  -14.715
Pt  -16.677  14.715  -12.753
Pt  -14.715  16.677  -12.753
Pt  -14.715  14.715  -10.791
Pt  -16.677  16.677  -10.791
Pt  -16.677  14.715  -8.829
Pt  -14.715  16.677  -8.829
Pt  -14.715  14.715  -6.867
Pt  -16.677  16.677  -6.867
Pt  -16.677  14.715  -4.905
Pt  -14.715  16.677  -4.905
Pt  -14.715  14.715  -2.943
Pt  -16.677  16.677  -2.943
Pt  -16.677  14.715  -0.981
Pt  -14.715  16.677  -0.981
Pt  -14.715  14.715  0.981
Pt  -16.677  16.677  0.981
Pt  -16.677  14.715  2.943
Pt  -14.715  16.677  2.943
Pt  -14.715  14.715  4.905
Pt  -16.677  16.677  4.905
Pt  -16.677  14.715  6.867
Pt  -14.715  16.677  6.867
Pt  -14.715  14.715  8.829
Pt  -16.677  16.677  8.829
Pt  -16.677  14.715  10.791
Pt  -14.715  16.677  10.791
Pt  -14.715  14.715  12.753
Pt  -16.677  16.677  12.753
Pt  -16.677  14.715  14.715
Pt  -14.715  16.677  14.715
Pt  -14.715  14.715  16.677
Pt  -14.715  18.639  -10.791
Pt  -16.677  18.639  -8.829
Pt  -14.715  20.601  -8.829
Pt  -14.715  18.639  -6.867
Pt  -16.677  18.639  -4.905
Pt  -14.715  20.601  -4.905
Pt  -14.715  18.639  -2.943
Pt  -16.677  18.639  -0.981
Pt  -14.715  20.601  -0.981
Pt  -14.715  18.639  0.981
Pt  -16.677  18.639  2.943
Pt  -14.715  20.601  2.943
Pt  -14.715  18.639  4.905
Pt  -16.677  18.639  6.867
Pt  -14.715  20.601  6.867
Pt  -14.715  18.639  8.829
Pt  -16.677  18.639  10.791
Pt  -14.715  20.601  10.791
Pt  -14.715  18.639  12.753
Pt  -10.791  -22.563  -12.753
Pt  -10.791  -24.525  -10.791
Pt  -12.753  -22.563  -10.791
Pt  -10.791  -22.563  -8.829
Pt  -10.791  -24.525  -6.867
Pt  -12.753  -22.563  -6.867
Pt  -10.791  -22.563  -4.905
Pt  -10.791  -24.525  -2.943
Pt  -12.753  -22.563  -2.943
Pt  -10.791  -22.563  -0.981
Pt  -10.791  -24.525  0.981
Pt  -12.753  -22.563  0.981
Pt  -10.791  -22.563  2.943
Pt  -10.791  -24.525  4.905
Pt  -12.753  -22.563  4.905
Pt  -10.791  -22.563  6.867
Pt  -10.791  -24.525  8.829
Pt  -12.753  -22.563  8.829
Pt  -10.791  -22.563  10.791
Pt  -10.791  -18.639  -16.677
Pt  -10.791  -20.601  -14.715
Pt  -12.753  -18.639  -14.715
Pt  -12.753  -20.601  -12.753
Pt  -10.791  -18.639  -12.753
Pt  -10.791  -20.601  -10.791
Pt  -12.753  -18.639  -10.791
Pt  -12.753  -20.601  -8.829
Pt  -10.791  -18.639  -8.829
Pt  -10.791  -20.601  -6.867
Pt  -12.753  -18.639  -6.867
Pt  -12.753  -20.601  -4.905
Pt  -10.791  -18.639  -4.905
Pt  -10.791  -20.601  -2.943
Pt  -12.753  -18.639  -2.943
Pt  -12.753  -20.601  -0.981
Pt  -10.791  -18.639  -0.981
Pt  -10.791  -20.601  0.981
Pt  -12.753  -18.639  0.981
Pt  -12.753  -20.601  2.943
Pt  -10.791  -18.639  2.943
Pt  -10.791  -20.601  4.905
Pt  -12.753  -18.639  4.905
Pt  -12.753  -20.601  6.867
Pt  -10.791  -18.639  6.867
Pt  -10.791  -20.601  8.829
Pt  -12.753  -18.639  8.829
Pt  -12.753  -20.601  10.791
Pt  -10.791  -18.639  10.791
Pt  -10.791  -20.601  12.753
Pt  -12.753  -18.639  12.753
Pt  -10.791  -18.639  14.715
Pt  -10.791  -14.715  -20.601
Pt  -10.791  -16.677  -18.639
Pt  -12.753  -14.715  -18.639
Pt  -12.753  -16.677  -16.677
Pt  -10.791  -14.715  -16.677
Pt  -10.791  -16.677  -14.715
Pt  -12.753  -14.715  -14.715
Pt  -12.753  -16.677  -12.753
Pt  -10.791  -14.715  -12.753
Pt  -10.791  -16.677  -10.791
Pt  -12.753  -14.715  -10.791
Pt  -12.753  -16.677  -8.829
Pt  -10.791  -14.715  -8.829
Pt  -10.791  -16.677  -6.867
Pt  -12.753  -14.715  -6.867
Pt  -12.753  -16.677  -4.905
Pt  -10.791  -14.715  -4.905
Pt  -10.791  -16.677  -2.943
Pt  -12.753  -14.715  -2.943
Pt  -12.753  -16.677  -0.981
Pt  -10.791  -14.715  -0.981
Pt  -10.791  -16.677  0.981
Pt  -12.753  -14.715  0.981
Pt  -12.753  -16.677  2.943
Pt  -10.791  -14.715  2.943
Pt  -10.791  -16.677  4.905
Pt  -12.753  -14.715  4.905
Pt  -12.753  -16.677  6.867
Pt  -10.791  -14.715  6.867
Pt  -10.791  -16.677  8.829
Pt  -12.753  -14.715  8.829
Pt  -12.753  -16.677  10.791
Pt  -10.791  -14.715  10.791
Pt  -10.791  -16.677  12.753
Pt  -12.753  -14.715  12.753
Pt  -12.753  -16.677  14.715
Pt  -10.791  -14.715  14.715
Pt  -10.791  -16.677  16.677
Pt  -12.753  -14.715  16.677
Pt  -10.791  -14.715  18.639
Pt  -10.791  -10.791  -24.525
Pt  -10.791  -12.753  -22.563
Pt  -12.753  -10.791  -22.563
Pt  -12.753  -12.753  -20.601
Pt  -10.791  -10.791  -20.601
Pt  -10.791  -12.753  -18.639
Pt  -12.753  -10.791  -18.639
Pt  -12.753  -12.753  -16.677
Pt  -10.791  -10.791  -16.677
Pt  -10.791  -12.753  -14.715
Pt  -12.753  -10.791  -14.715
Pt  -12.753  -12.753  -12.753
Pt  -10.791  -10.791  -12.753
Pt  -10.791  -12.753  -10.791
Pt  -12.753  -10.791  -10.791
Pt  -12.753  -12.753  -8.829
Pt  -10.791  -10.791  -8.829
Pt  -10.791  -12.753  -6.867
Pt  -12.753  -10.791  -6.867
Pt  -12.753  -12.753  -4.905
Pt  -10.791  -10.791  -4.905
Pt  -10.791  -12.753  -2.943
Pt  -12.753  -10.791  -2.943
Pt  -12.753  -12.753  -0.981
Pt  -10.791  -10.791  -0.981
Pt  -10.791  -12.753  0.981
Pt  -12.753  -10.791  0.981
Pt  -12.753  -12.753  2.943
Pt  -10.791  -10.791  2.943
Pt  -10.791  -12.753  4.905
Pt  -12.753  -10.791  4.905
Pt  -12.753  -12.753  6.867
Pt  -10.791  -10.791  6.867
Pt  -10.791  -12.753  8.829
Pt  -12.753  -10.791  8.829
Pt  -12.753  -12.753  10.791
Pt  -10.791  -10.791  10.791
Pt  -10.791  -12.753  12.753
Pt  -12.753  -10.791  12.753
Pt  -12.753  -12.753  14.715
Pt  -10.791  -10.791  14.715
Pt  -10.791  -12.753  16.677
Pt  -12.753  -10.791  16.677
Pt  -12.753  -12.753  18.639
Pt  -10.791  -10.791  18.639
Pt  -10.791  -12.753  20.601
Pt  -12.753  -10.791  20.601
Pt  -10.791  -10.791  22.563
Pt  -10.791  -6.867  -24.525
Pt  -10.791  -8.829  -22.563
Pt  -12.753  -6.867  -22.563
Pt  -12.753  -8.829  -20.601
Pt  -10.791  -6.867  -20.601
Pt  -10.791  -8.829  -18.639
Pt  -12.753  -6.867  -18.639
Pt  -12.753  -8.829  -16.677
Pt  -10.791  -6.867  -16.677
Pt  -10.791  -8.829  -14.715
Pt  -12.753  -6.867  -14.715
Pt  -12.753  -8.829  -12.753
Pt  -10.791  -6.867  -12.753
Pt  -10.791  -8.829  -10.791
Pt  -12.753  -6.867  -10.791
Pt  -12.753  -8.829  -8.829
Pt  -10.791  -6.867  -8.829
Pt  -10.791  -8.829  -6.867
Pt  -12.753  -6.867  -6.867
Pt  -12.753  -8.829  -4.905
Pt  -10.791  -6.867  -4.905
Pt  -10.791  -8.829  -2.943
Pt  -12.753  -6.867  -2.943
Pt  -12.753  -8.829  -0.981
Pt  -10.791  -6.867  -0.981
Pt  -10.791  -8.829  0.981
Pt  -12.753  -6.867  0.981
Pt  -12.753  -8.829  2.943
Pt  -10.791  -6.867  2.943
Pt  -10.791  -8.829  4.905
Pt  -12.753  -6.867  4.905
Pt  -12.753  -8.829  6.867
Pt  -10.791  -6.867  6.867
Pt  -10.791  -8.829  8.829
Pt  -12.753  -6.867  8.829
Pt  -12.753  -8.829  10.791
Pt  -10.791  -6.867  10.791
Pt  -10.791  -8.829  12.753
Pt  -12.753  -6.867  12.753
Pt  -12.753  -8.829  14.715
Pt  -10.791  -6.867  14.715
Pt  -10.791  -8.829  16.677
Pt  -12.753  -6.867  16.677
Pt  -12.753  -8.829  18.639
Pt  -10.791  -6.867  18.639
Pt  -10.791  -8.829  20.601
Pt  -12.753  -6.867  20.601
Pt  -12.753  -8.829  22.563
Pt  -10.791  -6.867  22.563
Pt  -10.791  -8.829  24.525
Pt  -10.791  -2.943  -24.525
Pt  -10.791  -4.905  -22.563
Pt  -12.753  -2.943  -22.563
Pt  -12.753  -4.905  -20.601
Pt  -10.791  -2.943  -20.601
Pt  -10.791  -4.905  -18.639
Pt  -12.753  -2.943  -18.639
Pt  -12.753  -4.905  -16.677
Pt  -10.791  -2.943  -16.677
Pt  -10.791  -4.905  -14.715
Pt  -12.753  -2.943  -14.715
Pt  -12.753  -4.905  -12.753
Pt  -10.791  -2.943  -12.753
Pt  -10.791  -4.905  -10.791
Pt  -12.753  -2.943  -10.791
Pt  -12.753  -4.905  -8.829
Pt  -10.791  -2.943  -8.829
Pt  -10.791  -4.905  -6.867
Pt  -12.753  -2.943  -6.867
Pt  -12.753  -4.905  -4.905
Pt  -10.791  -2.943  -4.905
Pt  -10.791  -4.905  -2.943
Pt  -12.753  -2.943  -2.943
Pt  -12.753  -4.905  -0.981
Pt  -10.791  -2.943  -0.981
Pt  -10.791  -4.905  0.981
Pt  -12.753  -2.943  0.981
Pt  -12.753  -4.905  2.943
Pt  -10.791  -2.943  2.943
Pt  -10.791  -4.905  4.905
Pt  -12.753  -2.943  4.905
Pt  -12.753  -4.905  6.867
Pt  -10.791  -2.943  6.867
Pt  -10.791  -4.905  8.829
Pt  -12.753  -2.943  8.829
Pt  -12.753  -4.905  10.791
Pt  -10.791  -2.943  10.791
Pt  -10.791  -4.905  12.753
Pt  -12.753  -2.943  12.753
Pt  -12.753  -4.905  14.715
Pt  -10.791  -2.943  14.715
Pt  -10.791  -4.905  16.677
Pt  -12.753  -2.943  16.677
Pt  -12.753  -4.905  18.639
Pt  -10.791  -2.943  18.639
Pt  -10.791  -4.905  20.601
Pt  -12.753  -2.943  20.601
Pt  -12.753  -4.905  22.563
Pt  -10.791  -2.943  22.563
Pt  -10.791  -4.905  24.525
Pt  -10.791  0.981  -24.525
Pt  -10.791  -0.981  -22.563
Pt  -12.753  0.981  -22.563
Pt  -12.753  -0.981  -20.601
Pt  -10.791  0.981  -20.601
Pt  -10.791  -0.981  -18.639
Pt  -12.753  0.981  -18.639
Pt  -12.753  -0.981  -16.677
Pt  -10.791  0.981  -16.677
Pt  -10.791  -0.981  -14.715
Pt  -12.753  0.981  -14.715
Pt  -12.753  -0.981  -12.753
Pt  -10.791  0.981  -12.753
Pt  -10.791  -0.981  -10.791
Pt  -12.753  0.981  -10.791
Pt  -12.753  -0.981  -8.829
Pt  -10.791  0.981  -8.829
Pt  -10.791  -0.981  -6.867
Pt  -12.753  0.981  -6.867
Pt  -12.753  -0.981  -4.905
Pt  -10.791  0.981  -4.905
Pt  -10.791  -0.981  -2.943
Pt  -12.753  0.981  -2.943
Pt  -12.753  -0.981  -0.981
Pt  -10.791  0.981  -0.981
Pt  -10.791  -0.981  0.981
Pt  -12.753  0.981  0.981
Pt  -12.753  -0.981  2.943
Pt  -10.791  0.981  2.943
Pt  -10.791  -0.981  4.905
Pt  -12.753  0.981  4.905
Pt  -12.753  -0.981  6.867
Pt  -10.791  0.981  6.867
Pt  -10.791  -0.981  8.829
Pt  -12.753  0.981  8.829
Pt  -12.753  -0.981  10.791
Pt  -10.791  0.981  10.791
Pt  -10.791  -0.981  12.753
Pt  -12.753  0.981  12.753
Pt  -12.753  -0.981  14.715
Pt  -10.791  0.981  14.715
Pt  -10.791  -0.981  16.677
Pt  -12.753  0.981  16.677
Pt  -12.753  -0.981  18.639
Pt  -10.791  0.981  18.639
Pt  -10.791  -0.981  20.601
Pt  -12.753  0.981  20.601
Pt  -12.753  -0.981  22.563
Pt  -10.791  0.981  22.563
Pt  -10.791  -0.981  24.525
Pt  -10.791  4.905  -24.525
Pt  -10.791  2.943  -22.563
Pt  -12.753  4.905  -22.563
Pt  -12.753  2.943  -20.601
Pt  -10.791  4.905  -20.601
Pt  -10.791  2.943  -18.639
Pt  -12.753  4.905  -18.639
Pt  -12.753  2.943  -16.677
Pt  -10.791  4.905  -16.677
Pt  -10.791  2.943  -14.715
Pt  -12.753  4.905  -14.715
Pt  -12.753  2.943  -12.753
Pt  -10.791  4.905  -12.753
Pt  -10.791  2.943  -10.791
Pt  -12.753  4.905  -10.791
Pt  -12.753  2.943  -8.829
Pt  -10.791  4.905  -8.829
Pt  -10.791  2.943  -6.867
Pt  -12.753  4.905  -6.867
Pt  -12.753  2.943  -4.905
Pt  -10.791  4.905  -4.905
Pt  -10.791  2.943  -2.943
Pt  -12.753  4.905  -2.943
Pt  -12.753  2.943  -0.981
Pt  -10.791  4.905  -0.981
Pt  -10.791  2.943  0.981
Pt  -12.753  4.905  0.981
Pt  -12.753  2.943  2.943
Pt  -10.791  4.905  2.943
Pt  -10.791  2.943  4.905
Pt  -12.753  4.905  4.905
Pt  -12.753  2.943  6.867
Pt  -10.791  4.905  6.867
Pt  -10.791  2.943  8.829
Pt  -12.753  4.905  8.829
Pt  -12.753  2.943  10.791
Pt  -10.791  4.905  10.791
Pt  -10.791  2.943  12.753
Pt  -12.753  4.905  12.753
Pt  -12.753  2.943  14.715
Pt  -10.791  4.905  14.715
Pt  -10.791  2.943  16.677
Pt  -12.753  4.905  16.677
Pt  -12.753  2.943  18.639
Pt  -10.791  4.905  18.639
Pt  -10.791  2.943  20.601
Pt  -12.753  4.905  20.601
Pt  -12.753  2.943  22.563
Pt  -10.791  4.905  22.563
Pt  -10.791  2.943  24.525
Pt  -10.791  8.829  -24.525
Pt  -10.791  6.867  -22.563
Pt  -12.753  8.829  -22.563
Pt  -12.753  6.867  -20.601
Pt  -10.791  8.829  -20.601
Pt  -10.791  6.867  -18.639
Pt  -12.753  8.829  -18.639
Pt  -12.753  6.867  -16.677
Pt  -10.791  8.829  -16.677
Pt  -10.791  6.867  -14.715
Pt  -12.753  8.829  -14.715
Pt  -12.753  6.867  -12.753
Pt  -10.791  8.829  -12.753
Pt  -10.791  6.867  -10.791
Pt  -12.753  8.829  -10.791
Pt  -12.753  6.867  -8.829
Pt  -10.791  8.829  -8.829
Pt  -10.791  6.867  -6.867
Pt  -12.753  8.829  -6.867
Pt  -12.753  6.867  -4.905
Pt  -10.791  8.829  -4.905
Pt  -10.791  6.867  -2.943
Pt  -12.753  8.829  -2.943
Pt  -12.753  6.867  -0.981
Pt  -10.791  8.829  -0.981
Pt  -10.791  6.867  0.981
Pt  -12.753  8.829  0.981
Pt  -12.753  6.867  2.943
Pt  -10.791  8.829  2.943
Pt  -10.791  6.867  4.905
Pt  -12.753  8.829  4.905
Pt  -12.753  6.867  6.867
Pt  -10.791  8.829  6.867
Pt  -10.791  6.867  8.829
Pt  -12.753  8.829  8.829
Pt  -12.753  6.867  10.791
Pt  -10.791  8.829  10.791
Pt  -10.791  6.867  12.753
Pt  -12.753  8.829  12.753
Pt  -12.753  6.867  14.715
Pt  -10.791  8.829  14.715
Pt  -10.791  6.867  16.677
Pt  -12.753  8.829  16.677
Pt  -12.753  6.867  18.639
Pt  -10.791  8.829  18.639
Pt  -10.791  6.867  20.601
Pt  -12.753  8.829  20.601
Pt  -12.753  6.867  22.563
Pt  -10.791  8.829  22.563
Pt  -10.791  6.867  24.525
Pt  -10.791  10.791  -22.563
Pt  -12.753  10.791  -20.601
Pt  -10.791  12.753  -20.601
Pt  -10.791  10.791  -18.639
Pt  -12.753  12.753  -18.639
Pt  -12.753  10.791  -16.677
Pt  -10.791  12.753  -16.677
Pt  -10.791  10.791  -14.715
Pt  -12.753  12.753  -14.715
Pt  -12.753  10.791  -12.753
Pt  -10.791  12.753  -12.753
Pt  -10.791  10.791  -10.791
Pt  -12.753  12.753  -10.791
Pt  -12.753  10.791  -8.829
Pt  -10.791  12.753  -8.829
Pt  -10.791  10.791  -6.867
Pt  -12.753  12.753  -6.867
Pt  -12.753  10.791  -4.905
Pt  -10.791  12.753  -4.905
Pt  -10.791  10.791  -2.943
Pt  -12.753  12.753  -2.943
Pt  -12.753  10.791  -0.981
Pt  -10.791  12.753  -0.981
Pt  -10.791  10.791  0.981
Pt  -12.753  12.753  0.981
Pt  -12.753  10.791  2.943
Pt  -10.791  12.753  2.943
Pt  -10.791  10.791  4.905
Pt  -12.753  12.753  4.905
Pt  -12.753  10.791  6.867
Pt  -10.791  12.753  6.867
Pt  -10.791  10.791  8.829
Pt  -12.753  12.753  8.829
Pt  -12.753  10.791  10.791
Pt  -10.791  12.753  10.791
Pt  -10.791  10.791  12.753
Pt  -12.753  12.753  12.753
Pt  -12.753  10.791  14.715
Pt  -10.791  12.753  14.715
Pt  -10.791  10.791  16.677
Pt  -12.753  12.753  16.677
Pt  -12.753  10.791  18.639
Pt  -10.791  12.753  18.639
Pt  -10.791  10.791  20.601
Pt  -12.753  12.753  20.601
Pt  -12.753  10.791  22.563
Pt  -10.791  12.753  22.563
Pt  -10.791  10.791  24.525
Pt  -10.791  14.715  -18.639
Pt  -12.753  14.715  -16.677
Pt  -10.791  16.677  -16.677
Pt  -10.791  14.715  -14.715
Pt  -12.753  16.677  -14.715
Pt  -12.753  14.715  -12.753
Pt  -10.791  16.677  -12.753
Pt  -10.791  14.715  -10.791
Pt  -12.753  16.677  -10.791
Pt  -12.753  14.715  -8.829
Pt  -10.791  16.677  -8.829
Pt  -10.791  14.715  -6.867
Pt  -12.753  16.677  -6.867
Pt  -12.753  14.715  -4.905
Pt  -10.791  16.677  -4.905
Pt  -10.791  14.715  -2.943
Pt  -12.753  16.677  -2.943
Pt  -12.753  14.715  -0.981
Pt  -10.791  16.677  -0.981
Pt  -10.791  14.715  0.981
Pt  -12.753  16.677  0.981
Pt  -12.753  14.715  2.943
Pt  -10.791  16.677  2.943
Pt  -10.791  14.715  4.905
Pt  -12.753  16.677  4.905
Pt  -12.753  14.715  6.867
Pt  -10.791  16.677  6.867
Pt  -10.791  14.715  8.829
Pt  -12.753  16.677  8.829
Pt  -12.753  14.715  10.791
Pt  -10.791  16.677  10.791
Pt  -10.791  14.715  12.753
Pt  -12.753  16.677  12.753
Pt  -12.753  14.715  14.715
Pt  -10.791  16.677  14.715
Pt  -10.791  14.715  16.677
Pt  -12.753  16.677  16.677
Pt  -12.753  14.715  18.639
Pt  -10.791  16.677  18.639
Pt  -10.791  14.715  20.601
Pt  -10.791  18.639  -14.715
Pt  -12.753  18.639  -12.753
Pt  -10.791  20.601  -12.753
Pt  -10.791  18.639  -10.791
Pt  -12.753  20.601  -10.791
Pt  -12.753  18.639  -8.829
Pt  -10.791  20.601  -8.829
Pt  -10.791  18.639  -6.867
Pt  -12.753  20.601  -6.867
Pt  -12.753  18.639  -4.905
Pt  -10.791  20.601  -4.905
Pt  -10.791  18.639  -2.943
Pt  -12.753  20.601  -2.943
Pt  -12.753  18.639  -0.981
Pt  -10.791  20.601  -0.981
Pt  -10.791  18.639  0.981
Pt  -12.753  20.601  0.981
Pt  -12.753  18.639  2.943
Pt  -10.791  20.601  2.943
Pt  -10.791  18.639  4.905
Pt  -12.753  20.601  4.905
Pt  -12.753  18.639  6.867
Pt  -10.791  20.601  6.867
Pt  -10.791  18.639  8.829
Pt  -12.753  20.601  8.829
Pt  -12.753  18.639  10.791
Pt  -10.791  20.601  10.791
Pt  -10.791  18.639  12.753
Pt  -12.753  20.601  12.753
Pt  -12.753  18.639  14.715
Pt  -10.791  20.601  14.715
Pt  -10.791  18.639  16.677
Pt  -10.791  22.563  -10.791
Pt  -12.753  22.563  -8.829
Pt  -10.791  24.525  -8.829
Pt  -10.791  22.563  -6.867
Pt  -12.753  22.563  -4.905
Pt  -10.791  24.525  -4.905
Pt  -10.791  22.563  -2.943
Pt  -12.753  22.563  -0.981
Pt  -10.791  24.525  -0.981
Pt  -10.791  22.563  0.981
Pt  -12.753  22.563  2.943
Pt  -10.791  24.525  2.943
Pt  -10.791  22.563  4.905
Pt  -12.753  22.563  6.867
Pt  -10.791  24.525  6.867
Pt  -10.791  22.563  8.829
Pt  -12.753  22.563  10.791
Pt  -10.791  24.525  10.791
Pt  -10.791  22.563  12.753
Pt  -6.867  -26.487  -8.829
Pt  -6.867  -28.449  -6.867
Pt  -8.829  -26.487  -6.867
Pt  -6.867  -26.487  -4.905
Pt  -6.867  -28.449  -2.943
Pt  -8.829  -26.487  -2.943
Pt  -6.867  -26.487  -0.981
Pt  -6.867  -28.449  0.981
Pt  -8.829  -26.487  0.981
Pt  -6.867  -26.487  2.943
Pt  -6.867  -28.449  4.905
Pt  -8.829  -26.487  4.905
Pt  -6.867  -26.487  6.867
Pt  -8.829  -26.487  8.829
Pt  -6.867  -22.563  -12.753
Pt  -6.867  -24.525  -10.791
Pt  -8.829  -22.563  -10.791
Pt  -8.829  -24.525  -8.829
Pt  -6.867  -22.563  -8.829
Pt  -6.867  -24.525  -6.867
Pt  -8.829  -22.563  -6.867
Pt  -8.829  -24.525  -4.905
Pt  -6.867  -22.563  -4.905
Pt  -6.867  -24.525  -2.943
Pt  -8.829  -22.563  -2.943
Pt  -8.829  -24.525  -0.981
Pt  -6.867  -22.563  -0.981
Pt  -6.867  -24.525  0.981
Pt  -8.829  -22.563  0.981
Pt  -8.829  -24.525  2.943
Pt  -6.867  -22.563  2.943
Pt  -6.867  -24.525  4.905
Pt  -8.829  -22.563  4.905
Pt  -8.829  -24.525  6.867
Pt  -6.867  -22.563  6.867
Pt  -6.867  -24.525  8.829
Pt  -8.829  -22.563  8.829
Pt  -8.829  -24.525  10.791
Pt  -6.867  -22.563  10.791
Pt  -8.829  -22.563  12.753
Pt  -6.867  -18.639  -16.677
Pt  -6.867  -20.601  -14.715
Pt  -8.829  -18.639  -14.715
Pt  -8.829  -20.601  -12.753
Pt  -6.867  -18.639  -12.753
Pt  -6.867  -20.601  -10.791
Pt  -8.829  -18.639  -10.791
Pt  -8.829  -20.601  -8.829
Pt  -6.867  -18.639  -8.829
Pt  -6.867  -20.601  -6.867
Pt  -8.829  -18.639  -6.867
Pt  -8.829  -20.601  -4.905
Pt  -6.867  -18.639  -4.905
Pt  -6.867  -20.601  -2.943
Pt  -8.829  -18.639  -2.943
Pt  -8.829  -20.601  -0.981
Pt  -6.867  -18.639  -0.981
Pt  -6.867  -20.601  0.981
Pt  -8.829  -18.639  0.981
Pt  -8.829  -20.601  2.943
Pt  -6.867  -18.639  2.943
Pt  -6.867  -20.601  4.905
Pt  -8.829  -18.639  4.905
Pt  -8.829  -20.601  6.867
Pt  -6.867  -18.639  6.867
Pt  -6.867  -20.601  8.829
Pt  -8.829  -18.639  8.829
Pt  -8.829  -20.601  10.791
Pt  -6.867  -18.639  10.791
Pt  -6.867  -20.601  12.753
Pt  -8.829  -18.639  12.753
Pt  -8.829  -20.601  14.715
Pt  -6.867  -18.639  14.715
Pt  -8.829  -18.639  16.677
Pt  -6.867  -14.715  -20.601
Pt  -6.867  -16.677  -18.639
Pt  -8.829  -14.715  -18.639
Pt  -8.829  -16.677  -16.677
Pt  -6.867  -14.715  -16.677
Pt  -6.867  -16.677  -14.715
Pt  -8.829  -14.715  -14.715
Pt  -8.829  -16.677  -12.753
Pt  -6.867  -14.715  -12.753
Pt  -6.867  -16.677  -10.791
Pt  -8.829  -14.715  -10.791
Pt  -8.829  -16.677  -8.829
Pt  -6.867  -14.715  -8.829
Pt  -6.867  -16.677  -6.867
Pt  -8.829  -14.715  -6.867
Pt  -8.829  -16.677  -4.905
Pt  -6.867  -14.715  -4.905
Pt  -6.867  -16.677  -2.943
Pt  -8.829  -14.715  -2.943
Pt  -8.829  -16.677  -0.981
Pt  -6.867  -14.715  -0.981
Pt  -6.867  -16.677  0.981
Pt  -8.829  -14.715  0.981
Pt  -8.829  -16.677  2.943
Pt  -6.867  -14.715  2.943
Pt  -6.867  -16.677  4.905
Pt  -8.829  -14.715  4.905
Pt  -8.829  -16.677  6.867
Pt  -6.867  -14.715  6.867
Pt  -6.867  -16.677  8.829
Pt  -8.829  -14.715  8.829
Pt  -8.829  -16.677  10.791
Pt  -6.867  -14.715  10.791
Pt  -6.867  -16.677  12.753
Pt  -8.829  -14.715  12.753
Pt  -8.829  -16.677  14.715
Pt  -6.867  -14.715  14.715
Pt  -6.867  -16.677  16.677
Pt  -8.829  -14.715  16.677
Pt  -8.829  -16.677  18.639
Pt  -6.867  -14.715  18.639
Pt  -8.829  -14.715  20.601
Pt  -6.867  -10.791  -24.525
Pt  -6.867  -12.753  -22.563
Pt  -8.829  -10.791  -22.563
Pt  -8.829  -12.753  -20.601
Pt  -6.867  -10.791  -20.601
Pt  -6.867  -12.753  -18.639
Pt  -8.829  -10.791  -18.639
Pt  -8.829  -12.753  -16.677
Pt  -6.867  -10.791  -16.677
Pt  -6.867  -12.753  -14.715
Pt  -8.829  -10.791  -14.715
Pt  -8.829  -12.753  -12.753
Pt  -6.867  -10.791  -12.753
Pt  -6.867  -12.753  -10.791
Pt  -8.829  -10.791  -10.791
Pt  -8.829  -12.753  -8.829
Pt  -6.867  -10.791  -8.829
Pt  -6.867  -12.753  -6.867
Pt  -8.829  -10.791  -6.867
Pt  -8.829  -12.753  -4.905
Pt  -6.867  -10.791  -4.905
Pt  -6.867  -12.753  -2.943
Pt  -8.829  -10.791  -2.943
Pt  -8.829  -12.753  -0.981
Pt  -6.867  -10.791  -0.981
Pt  -6.867  -12.753  0.981
Pt  -8.829  -10.791  0.981
Pt  -8.829  -12.753  2.943
Pt  -6.867  -10.791  2.943
Pt  -6.867  -12.753  4.905
Pt  -8.829  -10.791  4.905
Pt  -8.829  -12.753  6.867
Pt  -6.867  -10.791  6.867
Pt  -6.867  -12.753  8.829
Pt  -8.829  -10.791  8.829
Pt  -8.829  -12.753  10.791
Pt  -6.867  -10.791  10.791
Pt  -6.867  -12.753  12.753
Pt  -8.829  -10.791  12.753
Pt  -8.829  -12.753  14.715
Pt  -6.867  -10.791  14.715
Pt  -6.867  -12.753  16.677
Pt  -8.829  -10.791  16.677
Pt  -8.829  -12.753  18.639
Pt  -6.867  -10.791  18.639
Pt  -6.867  -12.753  20.601
Pt  -8.829  -10.791  20.601
Pt  -8.829  -12.753  22.563
Pt  -6.867  -10.791  22.563
Pt  -8.829  -10.791  24.525
Pt  -6.867  -6.867  -28.449
Pt  -6.867  -8.829  -26.487
Pt  -8.829  -6.867  -26.487
Pt  -8.829  -8.829  -24.525
Pt  -6.867  -6.867  -24.525
Pt  -6.867  -8.829  -22.563
Pt  -8.829  -6.867  -22.563
Pt  -8.829  -8.829  -20.601
Pt  -6.867  -6.867  -20.601
Pt  -6.867  -8.829  -18.639
Pt  -8.829  -6.867  -18.639
Pt  -8.829  -8.829  -16.677
Pt  -6.867  -6.867  -16.677
Pt  -6.867  -8.829  -14.715
Pt  -8.829  -6.867  -14.715
Pt  -8.829  -8.829  -12.753
Pt  -6.867  -6.867  -12.753
Pt  -6.867  -8.829  -10.791
Pt  -8.829  -6.867  -10.791
Pt  -8.829  -8.829  -8.829
Pt  -6.867  -6.867  -8.829
Pt  -6.867  -8.829  -6.867
Pt  -8.829  -6.867  -6.867
Pt  -8.829  -8.829  -4.905
Pt  -6.867  -6.867  -4.905
Pt  -6.867  -8.829  -2.943
Pt  -8.829  -6.867  -2.943
Pt  -8.829  -8.829  -0.981
Pt  -6.867  -6.867  -0.981
Pt  -6.867  -8.829  0.981
Pt  -8.829  -6.867  0.981
Pt  -8.829  -8.829  2.943
Pt  -6.867  -6.867  2.943
Pt  -6.867  -8.829  4.905
Pt  -8.829  -6.867  4.905
Pt  -8.829  -8.829  6.867
Pt  -6.867  -6.867  6.867
Pt  -6.867  -8.829  8.829
Pt  -8.829  -6.867  8.829
Pt  -8.829  -8.829  10.791
Pt  -6.867  -6.867  10.791
Pt  -6.867  -8.829  12.753
Pt  -8.829  -6.867  12.753
Pt  -8.829  -8.829  14.715
Pt  -6.867  -6.867  14.715
Pt  -6.867  -8.829  16.677
Pt  -8.829  -6.867  16.677
Pt  -8.829  -8.829  18.639
Pt  -6.867  -6.867  18.639
Pt  -6.867  -8.829  20.601
Pt  -8.829  -6.867  20.601
Pt  -8.829  -8.829  22.563
Pt  -6.867  -6.867  22.563
Pt  -6.867  -8.829  24.525
Pt  -8.829  -6.867  24.525
Pt  -8.829  -8.829  26.487
Pt  -6.867  -6.867  26.487
Pt  -6.867  -2.943  -28.449
Pt  -6.867  -4.905  -26.487
Pt  -8.829  -2.943  -26.487
Pt  -8.829  -4.905  -24.525
Pt  -6.867  -2.943  -24.525
Pt  -6.867  -4.905  -22.563
Pt  -8.829  -2.943  -22.563
Pt  -8.829  -4.905  -20.601
Pt  -6.867  -2.943  -20.601
Pt  -6.867  -4.905  -18.639
Pt  -8.829  -2.943  -18.639
Pt  -8.829  -4.905  -16.677
Pt  -6.867  -2.943  -16.677
Pt  -6.867  -4.905  -14.715
Pt  -8.829  -2.943  -14.715
Pt  -8.829  -4.905  -12.753
Pt  -6.867  -2.943  -12.753
Pt  -6.867  -4.905  -10.791
Pt  -8.829  -2.943  -10.791
Pt  -8.829  -4.905  -8.829
Pt  -6.867  -2.943  -8.829
Pt  -6.867  -4.905  -6.867
Pt  -8.829  -2.943  -6.867
Pt  -8.829  -4.905  -4.905
Pt  -6.867  -2.943  -4.905
Pt  -6.867  -4.905  -2.943
Pt  -8.829  -2.943  -2.943
Pt  -8.829  -4.905  -0.981
Pt  -6.867  -2.943  -0.981
Pt  -6.867  -4.905  0.981
Pt  -8.829  -2.943  0.981
Pt  -8.829  -4.905  2.943
Pt  -6.867  -2.943  2.943
Pt  -6.867  -4.905  4.905
Pt  -8.829  -2.943  4.905
Pt  -8.829  -4.905  6.867
Pt  -6.867  -2.943  6.867
Pt  -6.867  -4.905  8.829
Pt  -8.829  -2.943  8.829
Pt  -8.829  -4.905  10.791
Pt  -6.867  -2.943  10.791
Pt  -6.867  -4.905  12.753
Pt  -8.829  -2.943  12.753
Pt  -8.829  -4.905  14.715
Pt  -6.867  -2.943  14.715
Pt  -6.867  -4.905  16.677
Pt  -8.829  -2.943  16.677
Pt  -8.829  -4.905  18.639
Pt  -6.867  -2.943  18.639
Pt  -6.867  -4.905  20.601
Pt  -8.829  -2.943  20.601
Pt  -8.829  -4.905  22.563
Pt  -6.867  -2.943  22.563
Pt  -6.867  -4.905  24.525
Pt  -8.829  -2.943  24.525
Pt  -8.829  -4.905  26.487
Pt  -6.867  -2.943  26.487
Pt  -6.867  -4.905  28.449
Pt  -6.867  0.981  -28.449
Pt  -6.867  -0.981  -26.487
Pt  -8.829  0.981  -26.487
Pt  -8.829  -0.981  -24.525
Pt  -6.867  0.981  -24.525
Pt  -6.867  -0.981  -22.563
Pt  -8.829  0.981  -22.563
Pt  -8.829  -0.981  -20.601
Pt  -6.867  0.981  -20.601
Pt  -6.867  -0.981  -18.639
Pt  -8.829  0.981  -18.639
Pt  -8.829  -0.981  -16.677
Pt  -6.867  0.981  -16.677
Pt  -6.867  -0.981  -14.715
Pt  -8.829  0.981  -14.715
Pt  -8.829  -0.981  -12.753
Pt  -6.867  0.981  -12.753
Pt  -6.867  -0.981  -10.791
Pt  -8.829  0.981  -10.791
Pt  -8.829  -0.981  -8.829
Pt  -6.867  0.981  -8.829
Pt  -6.867  -0.981  -6.867
Pt  -8.829  0.981  -6.867
Pt  -8.829  -0.981  -4.905
Pt  -6.867  0.981  -4.905
Pt  -6.867  -0.981  -2.943
Pt  -8.829  0.981  -2.943
Pt  -8.829  -0.981  -0.981
Pt  -6.867  0.981  -0.981
Pt  -6.867  -0.981  0.981
Pt  -8.829  0.981  0.981
Pt  -8.829  -0.981  2.943
Pt  -6.867  0.981  2.943
Pt  -6.867  -0.981  4.905
Pt  -8.829  0.981  4.905
Pt  -8.829  -0.981  6.867
Pt  -6.867  0.981  6.867
Pt  -6.867  -0.981  8.829
Pt  -8.829  0.981  8.829
Pt  -8.829  -0.981  10.791
Pt  -6.867  0.981  10.791
Pt  -6.867  -0.981  12.753
Pt  -8.829  0.981  12.753
Pt  -8.829  -0.981  14.715
Pt  -6.867  0.981  14.715
Pt  -6.867  -0.981  16.677
Pt  -8.829  0.981  16.677
Pt  -8.829  -0.981  18.639
Pt  -6.867  0.981  18.639
Pt  -6.867  -0.981  20.601
Pt  -8.829  0.981  20.601
Pt  -8.829  -0.981  22.563
Pt  -6.867  0.981  22.563
Pt  -6.867  -0.981  24.525
Pt  -8.829  0.981  24.525
Pt  -8.829  -0.981  26.487
Pt  -6.867  0.981  26.487
Pt  -6.867  -0.981  28.449
Pt  -6.867  4.905  -28.449
Pt  -6.867  2.943  -26.487
Pt  -8.829  4.905  -26.487
Pt  -8.829  2.943  -24.525
Pt  -6.867  4.905  -24.525
Pt  -6.867  2.943  -22.563
Pt  -8.829  4.905  -22.563
Pt  -8.829  2.943  -20.601
Pt  -6.867  4.905  -20.601
Pt  -6.867  2.943  -18.639
Pt  -8.829  4.905  -18.639
Pt  -8.829  2.943  -16.677
Pt  -6.867  4.905  -16.677
Pt  -6.867  2.943  -14.715
Pt  -8.829  4.905  -14.715
Pt  -8.829  2.943  -12.753
Pt  -6.867  4.905  -12.753
Pt  -6.867  2.943  -10.791
Pt  -8.829  4.905  -10.791
Pt  -8.829  2.943  -8.829
Pt  -6.867  4.905  -8.829
Pt  -6.867  2.943  -6.867
Pt  -8.829  4.905  -6.867
Pt  -8.829  2.943  -4.905
Pt  -6.867  4.905  -4.905
Pt  -6.867  2.943  -2.943
Pt  -8.829  4.905  -2.943
Pt  -8.829  2.943  -0.981
Pt  -6.867  4.905  -0.981
Pt  -6.867  2.943  0.981
Pt  -8.829  4.905  0.981
Pt  -8.829  2.943  2.943
Pt  -6.867  4.905  2.943
Pt  -6.867  2.943  4.905
Pt  -8.829  4.905  4.905
Pt  -8.829  2.943  6.867
Pt  -6.867  4.905  6.867
Pt  -6.867  2.943  8.829
Pt  -8.829  4.905  8.829
Pt  -8.829  2.943  10.791
Pt  -6.867  4.905  10.791
Pt  -6.867  2.943  12.753
Pt  -8.829  4.905  12.753
Pt  -8.829  2.943  14.715
Pt  -6.867  4.905  14.715
Pt  -6.867  2.943  16.677
Pt  -8.829  4.905  16.677
Pt  -8.829  2.943  18.639
Pt  -6.867  4.905  18.639
Pt  -6.867  2.943  20.601
Pt  -8.829  4.905  20.601
Pt  -8.829  2.943  22.563
Pt  -6.867  4.905  22.563
Pt  -6.867  2.943  24.525
Pt  -8.829  4.905  24.525
Pt  -8.829  2.943  26.487
Pt  -6.867  4.905  26.487
Pt  -6.867  2.943  28.449
Pt  -6.867  6.867  -26.487
Pt  -8.829  8.829  -26.487
Pt  -8.829  6.867  -24.525
Pt  -6.867  8.829  -24.525
Pt  -6.867  6.867  -22.563
Pt  -8.829  8.829  -22.563
Pt  -8.829  6.867  -20.601
Pt  -6.867  8.829  -20.601
Pt  -6.867  6.867  -18.639
Pt  -8.829  8.829  -18.639
Pt  -8.829  6.867  -16.677
Pt  -6.867  8.829  -16.677
Pt  -6.867  6.867  -14.715
Pt  -8.829  8.829  -14.715
Pt  -8.829  6.867  -12.753
Pt  -6.867  8.829  -12.753
Pt  -6.867  6.867  -10.791
Pt  -8.829  8.829  -10.791
Pt  -8.829  6.867  -8.829
Pt  -6.867  8.829  -8.829
Pt  -6.867  6.867  -6.867
Pt  -8.829  8.829  -6.867
Pt  -8.829  6.867  -4.905
Pt  -6.867  8.829  -4.905
Pt  -6.867  6.867  -2.943
Pt  -8.829  8.829  -2.943
Pt  -8.829  6.867  -0.981
Pt  -6.867  8.829  -0.981
Pt  -6.867  6.867  0.981
Pt  -8.829  8.829  0.981
Pt  -8.829  6.867  2.943
Pt  -6.867  8.829  2.943
Pt  -6.867  6.867  4.905
Pt  -8.829  8.829  4.905
Pt  -8.829  6.867  6.867
Pt  -6.867  8.829  6.867
Pt  -6.867  6.867  8.829
Pt  -8.829  8.829  8.829
Pt  -8.829  6.867  10.791
Pt  -6.867  8.829  10.791
Pt  -6.867  6.867  12.753
Pt  -8.829  8.829  12.753
Pt  -8.829  6.867  14.715
Pt  -6.867  8.829  14.715
Pt  -6.867  6.867  16.677
Pt  -8.829  8.829  16.677
Pt  -8.829  6.867  18.639
Pt  -6.867  8.829  18.639
Pt  -6.867  6.867  20.601
Pt  -8.829  8.829  20.601
Pt  -8.829  6.867  22.563
Pt  -6.867  8.829  22.563
Pt  -6.867  6.867  24.525
Pt  -8.829  8.829  24.525
Pt  -8.829  6.867  26.487
Pt  -6.867  8.829  26.487
Pt  -6.867  6.867  28.449
Pt  -8.829  10.791  -24.525
Pt  -6.867  10.791  -22.563
Pt  -8.829  12.753  -22.563
Pt  -8.829  10.791  -20.601
Pt  -6.867  12.753  -20.601
Pt  -6.867  10.791  -18.639
Pt  -8.829  12.753  -18.639
Pt  -8.829  10.791  -16.677
Pt  -6.867  12.753  -16.677
Pt  -6.867  10.791  -14.715
Pt  -8.829  12.753  -14.715
Pt  -8.829  10.791  -12.753
Pt  -6.867  12.753  -12.753
Pt  -6.867  10.791  -10.791
Pt  -8.829  12.753  -10.791
Pt  -8.829  10.791  -8.829
Pt  -6.867  12.753  -8.829
Pt  -6.867  10.791  -6.867
Pt  -8.829  12.753  -6.867
Pt  -8.829  10.791  -4.905
Pt  -6.867  12.753  -4.905
Pt  -6.867  10.791  -2.943
Pt  -8.829  12.753  -2.943
Pt  -8.829  10.791  -0.981
Pt  -6.867  12.753  -0.981
Pt  -6.867  10.791  0.981
Pt  -8.829  12.753  0.981
Pt  -8.829  10.791  2.943
Pt  -6.867  12.753  2.943
Pt  -6.867  10.791  4.905
Pt  -8.829  12.753  4.905
Pt  -8.829  10.791  6.867
Pt  -6.867  12.753  6.867
Pt  -6.867  10.791  8.829
Pt  -8.829  12.753  8.829
Pt  -8.829  10.791  10.791
Pt  -6.867  12.753  10.791
Pt  -6.867  10.791  12.753
Pt  -8.829  12.753  12.753
Pt  -8.829  10.791  14.715
Pt  -6.867  12.753  14.715
Pt  -6.867  10.791  16.677
Pt  -8.829  12.753  16.677
Pt  -8.829  10.791  18.639
Pt  -6.867  12.753  18.639
Pt  -6.867  10.791  20.601
Pt  -8.829  12.753  20.601
Pt  -8.829  10.791  22.563
Pt  -6.867  12.753  22.563
Pt  -6.867  10.791  24.525
Pt  -8.829  14.715  -20.601
Pt  -6.867  14.715  -18.639
Pt  -8.829  16.677  -18.639
Pt  -8.829  14.715  -16.677
Pt  -6.867  16.677  -16.677
Pt  -6.867  14.715  -14.715
Pt  -8.829  16.677  -14.715
Pt  -8.829  14.715  -12.753
Pt  -6.867  16.677  -12.753
Pt  -6.867  14.715  -10.791
Pt  -8.829  16.677  -10.791
Pt  -8.829  14.715  -8.829
Pt  -6.867  16.677  -8.829
Pt  -6.867  14.715  -6.867
Pt  -8.829  16.677  -6.867
Pt  -8.829  14.715  -4.905
Pt  -6.867  16.677  -4.905
Pt  -6.867  14.715  -2.943
Pt  -8.829  16.677  -2.943
Pt  -8.829  14.715  -0.981
Pt  -6.867  16.677  -0.981
Pt  -6.867  14.715  0.981
Pt  -8.829  16.677  0.981
Pt  -8.829  14.715  2.943
Pt  -6.867  16.677  2.943
Pt  -6.867  14.715  4.905
Pt  -8.829  16.677  4.905
Pt  -8.829  14.715  6.867
Pt  -6.867  16.677  6.867
Pt  -6.867  14.715  8.829
Pt  -8.829  16.677  8.829
Pt  -8.829  14.715  10.791
Pt  -6.867  16.677  10.791
Pt  -6.867  14.715  12.753
Pt  -8.829  16.677  12.753
Pt  -8.829  14.715  14.715
Pt  -6.867  16.677  14.715
Pt  -6.867  14.715  16.677
Pt  -8.829  16.677  16.677
Pt  -8.829  14.715  18.639
Pt  -6.867  16.677  18.639
Pt  -6.867  14.715  20.601
Pt  -8.829  18.639  -16.677
Pt  -6.867  18.639  -14.715
Pt  -8.829  20.601  -14.715
Pt  -8.829  18.639  -12.753
Pt  -6.867  20.601  -12.753
Pt  -6.867  18.639  -10.791
Pt  -8.829  20.601  -10.791
Pt  -8.829  18.639  -8.829
Pt  -6.867  20.601  -8.829
Pt  -6.867  18.639  -6.867
Pt  -8.829  20.601  -6.867
Pt  -8.829  18.639  -4.905
Pt  -6.867  20.601  -4.905
Pt  -6.867  18.639  -2.943
Pt  -8.829  20.601  -2.943
Pt  -8.829  18.639  -0.981
Pt  -6.867  20.601  -0.981
Pt  -6.867  18.639  0.981
Pt  -8.829  20.601  0.981
Pt  -8.829  18.639  2.943
Pt  -6.867  20.601  2.943
Pt  -6.867  18.639  4.905
Pt  -8.829  20.601  4.905
Pt  -8.829  18.639  6.867
Pt  -6.867  20.601  6.867
Pt  -6.867  18.639  8.829
Pt  -8.829  20.601  8.829
Pt  -8.829  18.639  10.791
Pt  -6.867  20.601  10.791
Pt  -6.867  18.639  12.753
Pt  -8.829  20.601  12.753
Pt  -8.829  18.639  14.715
Pt  -6.867  20.601  14.715
Pt  -6.867  18.639  16.677
Pt  -8.829  22.563  -12.753
Pt  -6.867  22.563  -10.791
Pt  -8.829  24.525  -10.791
Pt  -8.829  22.563  -8.829
Pt  -6.867  24.525  -8.829
Pt  -6.867  22.563  -6.867
Pt  -8.829  24.525  -6.867
Pt  -8.829  22.563  -4.905
Pt  -6.867  24.525  -4.905
Pt  -6.867  22.563  -2.943
Pt  -8.829  24.525  -2.943
Pt  -8.829  22.563  -0.981
Pt  -6.867  24.525  -0.981
Pt  -6.867  22.563  0.981
Pt  -8.829  24.525  0.981
Pt  -8.829  22.563  2.943
Pt  -6.867  24.525  2.943
Pt  -6.867  22.563  4.905
Pt  -8.829  24.525  4.905
Pt  -8.829  22.563  6.867
Pt  -6.867  24.525  6.867
Pt  -6.867  22.563  8.829
Pt  -8.829  24.525  8.829
Pt  -8.829  22.563  10.791
Pt  -6.867  24.525  10.791
Pt  -6.867  22.563  12.753
Pt  -8.829  26.487  -8.829
Pt  -6.867  26.487  -6.867
Pt  -8.829  26.487  -4.905
Pt  -6.867  28.449  -4.905
Pt  -6.867  26.487  -2.943
Pt  -8.829  26.487  -0.981
Pt  -6.867  28.449  -0.981
Pt  -6.867  26.487  0.981
Pt  -8.829  26.487  2.943
Pt  -6.867  28.449  2.943
Pt  -6.867  26.487  4.905
Pt  -8.829  26.487  6.867
Pt  -6.867  28.449  6.867
Pt  -6.867  26.487  8.829
Pt  -2.943  -26.487  -8.829
Pt  -2.943  -28.449  -6.867
Pt  -4.905  -26.487  -6.867
Pt  -4.905  -28.449  -4.905
Pt  -2.943  -26.487  -4.905
Pt  -2.943  -28.449  -2.943
Pt  -4.905  -26.487  -2.943
Pt  -4.905  -28.449  -0.981
Pt  -2.943  -26.487  -0.981
Pt  -2.943  -28.449  0.981
Pt  -4.905  -26.487  0.981
Pt  -4.905  -28.449  2.943
Pt  -2.943  -26.487  2.943
Pt  -2.943  -28.449  4.905
Pt  -4.905  -26.487  4.905
Pt  -4.905  -28.449  6.867
Pt  -2.943  -26.487  6.867
Pt  -4.905  -26.487  8.829
Pt  -2.943  -22.563  -12.753
Pt  -2.943  -24.525  -10.791
Pt  -4.905  -22.563  -10.791
Pt  -4.905  -24.525  -8.829
Pt  -2.943  -22.563  -8.829
Pt  -2.943  -24.525  -6.867
Pt  -4.905  -22.563  -6.867
Pt  -4.905  -24.525  -4.905
Pt  -2.943  -22.563  -4.905
Pt  -2.943  -24.525  -2.943
Pt  -4.905  -22.563  -2.943
Pt  -4.905  -24.525  -0.981
Pt  -2.943  -22.563  -0.981
Pt  -2.943  -24.525  0.981
Pt  -4.905  -22.563  0.981
Pt  -4.905  -24.525  2.943
Pt  -2.943  -22.563  2.943
Pt  -2.943  -24.525  4.905
Pt  -4.905  -22.563  4.905
Pt  -4.905  -24.525  6.867
Pt  -2.943  -22.563  6.867
Pt  -2.943  -24.525  8.829
Pt  -4.905  -22.563  8.829
Pt  -4.905  -24.525  10.791
Pt  -2.943  -22.563  10.791
Pt  -4.905  -22.563  12.753
Pt  -2.943  -18.639  -16.677
Pt  -2.943  -20.601  -14.715
Pt  -4.905  -18.639  -14.715
Pt  -4.905  -20.601  -12.753
Pt  -2.943  -18.639  -12.753
Pt  -2.943  -20.601  -10.791
Pt  -4.905  -18.639  -10.791
Pt  -4.905  -20.601  -8.829
Pt  -2.943  -18.639  -8.829
Pt  -2.943  -20.601  -6.867
Pt  -4.905  -18.639  -6.867
Pt  -4.905  -20.601  -4.905
Pt  -2.943  -18.639  -4.905
Pt  -2.943  -20.601  -2.943
Pt  -4.905  -18.639  -2.943
Pt  -4.905  -20.601  -0.981
Pt  -2.943  -18.639  -0.981
Pt  -2.943  -20.601  0.981
Pt  -4.905  -18.639  0.981
Pt  -4.905  -20.601  2.943
Pt  -2.943  -18.639  2.943
Pt  -2.943  -20.601  4.905
Pt  -4.905  -18.639  4.905
Pt  -4.905  -20.601  6.867
Pt  -2.943  -18.639  6.867
Pt  -2.943  -20.601  8.829
Pt  -4.905  -18.639  8.829
Pt  -4.905  -20.601  10.791
Pt  -2.943  -18.639  10.791
Pt  -2.943  -20.601  12.753
Pt  -4.905  -18.639  12.753
Pt  -4.905  -20.601  14.715
Pt  -2.943  -18.639  14.715
Pt  -4.905  -18.639  16.677
Pt  -2.943  -14.715  -20.601
Pt  -2.943  -16.677  -18.639
Pt  -4.905  -14.715  -18.639
Pt  -4.905  -16.677  -16.677
Pt  -2.943  -14.715  -16.677
Pt  -2.943  -16.677  -14.715
Pt  -4.905  -14.715  -14.715
Pt  -4.905  -16.677  -12.753
Pt  -2.943  -14.715  -12.753
Pt  -2.943  -16.677  -10.791
Pt  -4.905  -14.715  -10.791
Pt  -4.905  -16.677  -8.829
Pt  -2.943  -14.715  -8.829
Pt  -2.943  -16.677  -6.867
Pt  -4.905  -14.715  -6.867
Pt  -4.905  -16.677  -4.905
Pt  -2.943  -14.715  -4.905
Pt  -2.943  -16.677  -2.943
Pt  -4.905  -14.715  -2.943
Pt  -4.905  -16.677  -0.981
Pt  -2.943  -14.715  -0.981
Pt  -2.943  -16.677  0.981
Pt  -4.905  -14.715  0.981
Pt  -4.905  -16.677  2.943
Pt  -2.943  -14.715  2.943
Pt  -2.943  -16.677  4.905
Pt  -4.905  -14.715  4.905
Pt  -4.905  -16.677  6.867
Pt  -2.943  -14.715  6.867
Pt  -2.943  -16.677  8.829
Pt  -4.905  -14.715  8.829
Pt  -4.905  -16.677  10.791
Pt  -2.943  -14.715  10.791
Pt  -2.943  -16.677  12.753
Pt  -4.905  -14.715  12.753
Pt  -4.905  -16.677  14.715
Pt  -2.943  -14.715  14.715
Pt  -2.943  -16.677  16.677
Pt  -4.905  -14.715  16.677
Pt  -4.905  -16.677  18.639
Pt  -2.943  -14.715  18.639
Pt  -4.905  -14.715  20.601
Pt  -2.943  -10.791  -24.525
Pt  -2.943  -12.753  -22.563
Pt  -4.905  -10.791  -22.563
Pt  -4.905  -12.753  -20.601
Pt  -2.943  -10.791  -20.601
Pt  -2.943  -12.753  -18.639
Pt  -4.905  -10.791  -18.639
Pt  -4.905  -12.753  -16.677
Pt  -2.943  -10.791  -16.677
Pt  -2.943  -12.753  -14.715
Pt  -4.905  -10.791  -14.715
Pt  -4.905  -12.753  -12.753
Pt  -2.943  -10.791  -12.753
Pt  -2.943  -12.753  -10.791
Pt  -4.905  -10.791  -10.791
Pt  -4.905  -12.753  -8.829
Pt  -2.943  -10.791  -8.829
Pt  -2.943  -12.753  -6.867
Pt  -4.905  -10.791  -6.867
Pt  -4.905  -12.753  -4.905
Pt  -2.943  -10.791  -4.905
Pt  -2.943  -12.753  -2.943
Pt  -4.905  -10.791  -2.943
Pt  -4.905  -12.753  -0.981
Pt  -2.943  -10.791  -0.981
Pt  -2.943  -12.753  0.981
Pt  -4.905  -10.791  0.981
Pt  -4.905  -12.753  2.943
Pt  -2.943  -10.791  2.943
Pt  -2.943  -12.753  4.905
Pt  -4.905  -10.791  4.905
Pt  -4.905  -12.753  6.867
Pt  -2.943  -10.791  6.867
Pt  -2.943  -12.753  8.829
Pt  -4.905  -10.791  8.829
Pt  -4.905  -12.753  10.791
Pt  -2.943  -10.791  10.791
Pt  -2.943  -12.753  12.753
Pt  -4.905  -10.791  12.753
Pt  -4.905  -12.753  14.715
Pt  -2.943  -10.791  14.715
Pt  -2.943  -12.753  16.677
Pt  -4.905  -10.791  16.677
Pt  -4.905  -12.753  18.639
Pt  -2.943  -10.791  18.639
Pt  -2.943  -12.753  20.601
Pt  -4.905  -10.791  20.601
Pt  -4.905  -12.753  22.563
Pt  -2.943  -10.791  22.563
Pt  -4.905  -10.791  24.525
Pt  -2.943  -6.867  -28.449
Pt  -2.943  -8.829  -26.487
Pt  -4.905  -6.867  -26.487
Pt  -4.905  -8.829  -24.525
Pt  -2.943  -6.867  -24.525
Pt  -2.943  -8.829  -22.563
Pt  -4.905  -6.867  -22.563
Pt  -4.905  -8.829  -20.601
Pt  -2.943  -6.867  -20.601
Pt  -2.943  -8.829  -18.639
Pt  -4.905  -6.867  -18.639
Pt  -4.905  -8.829  -16.677
Pt  -2.943  -6.867  -16.677
Pt  -2.943  -8.829  -14.715
Pt  -4.905  -6.867  -14.715
Pt  -4.905  -8.829  -12.753
Pt  -2.943  -6.867  -12.753
Pt  -2.943  -8.829  -10.791
Pt  -4.905  -6.867  -10.791
Pt  -4.905  -8.829  -8.829
Pt  -2.943  -6.867  -8.829
Pt  -2.943  -8.829  -6.867
Pt  -4.905  -6.867  -6.867
Pt  -4.905  -8.829  -4.905
Pt  -2.943  -6.867  -4.905
Pt  -2.943  -8.829  -2.943
Pt  -4.905  -6.867  -2.943
Pt  -4.905  -8.829  -0.981
Pt  -2.943  -6.867  -0.981
Pt  -2.943  -8.829  0.981
Pt  -4.905  -6.867  0.981
Pt  -4.905  -8.829  2.943
Pt  -2.943  -6.867  2.943
Pt  -2.943  -8.829  4.905
Pt  -4.905  -6.867  4.905
Pt  -4.905  -8.829  6.867
Pt  -2.943  -6.867  6.867
Pt  -2.943  -8.829  8.829
Pt  -4.905  -6.867  8.829
Pt  -4.905  -8.829  10.791
Pt  -2.943  -6.867  10.791
Pt  -2.943  -8.829  12.753
Pt  -4.905  -6.867  12.753
Pt  -4.905  -8.829  14.715
Pt  -2.943  -6.867  14.715
Pt  -2.943  -8.829  16.677
Pt  -4.905  -6.867  16.677
Pt  -4.905  -8.829  18.639
Pt  -2.943  -6.867  18.639
Pt  -2.943  -8.829  20.601
Pt  -4.905  -6.867  20.601
Pt  -4.905  -8.829  22.563
Pt  -2.943  -6.867  22.563
Pt  -2.943  -8.829  24.525
Pt  -4.905  -6.867  24.525
Pt  -4.905  -8.829  26.487
Pt  -2.943  -6.867  26.487
Pt  -4.905  -6.867  28.449
Pt  -4.905  -4.905  -28.449
Pt  -2.943  -2.943  -28.449
Pt  -2.943  -4.905  -26.487
Pt  -4.905  -2.943  -26.487
Pt  -4.905  -4.905  -24.525
Pt  -2.943  -2.943  -24.525
Pt  -2.943  -4.905  -22.563
Pt  -4.905  -2.943  -22.563
Pt  -4.905  -4.905  -20.601
Pt  -2.943  -2.943  -20.601
Pt  -2.943  -4.905  -18.639
Pt  -4.905  -2.943  -18.639
Pt  -4.905  -4.905  -16.677
Pt  -2.943  -2.943  -16.677
Pt  -2.943  -4.905  -14.715
Pt  -4.905  -2.943  -14.715
Pt  -4.905  -4.905  -12.753
Pt  -2.943  -2.943  -12.753
Pt  -2.943  -4.905  -10.791
Pt  -4.905  -2.943  -10.791
Pt  -4.905  -4.905  -8.829
Pt  -2.943  -2.943  -8.829
Pt  -2.943  -4.905  -6.867
Pt  -4.905  -2.943  -6.867
Pt  -4.905  -4.905  -4.905
Pt  -2.943  -2.943  -4.905
Pt  -2.943  -4.905  -2.943
Pt  -4.905  -2.943  -2.943
Pt  -4.905  -4.905  -0.981
Pt  -2.943  -2.943  -0.981
Pt  -2.943  -4.905  0.981
Pt  -4.905  -2.943  0.981
Pt  -4.905  -4.905  2.943
Pt  -2.943  -2.943  2.943
Pt  -2.943  -4.905  4.905
Pt  -4.905  -2.943  4.905
Pt  -4.905  -4.905  6.867
Pt  -2.943  -2.943  6.867
Pt  -2.943  -4.905  8.829
Pt  -4.905  -2.943  8.829
Pt  -4.905  -4.905  10.791
Pt  -2.943  -2.943  10.791
Pt  -2.943  -4.905  12.753
Pt  -4.905  -2.943  12.753
Pt  -4.905  -4.905  14.715
Pt  -2.943  -2.943  14.715
Pt  -2.943  -4.905  16.677
Pt  -4.905  -2.943  16.677
Pt  -4.905  -4.905  18.639
Pt  -2.943  -2.943  18.639
Pt  -2.943  -4.905  20.601
Pt  -4.905  -2.943  20.601
Pt  -4.905  -4.905  22.563
Pt  -2.943  -2.943  22.563
Pt  -2.943  -4.905  24.525
Pt  -4.905  -2.943  24.525
Pt  -4.905  -4.905  26.487
Pt  -2.943  -2.943  26.487
Pt  -2.943  -4.905  28.449
Pt  -4.905  -2.943  28.449
Pt  -4.905  -0.981  -28.449
Pt  -2.943  0.981  -28.449
Pt  -2.943  -0.981  -26.487
Pt  -4.905  0.981  -26.487
Pt  -4.905  -0.981  -24.525
Pt  -2.943  0.981  -24.525
Pt  -2.943  -0.981  -22.563
Pt  -4.905  0.981  -22.563
Pt  -4.905  -0.981  -20.601
Pt  -2.943  0.981  -20.601
Pt  -2.943  -0.981  -18.639
Pt  -4.905  0.981  -18.639
Pt  -4.905  -0.981  -16.677
Pt  -2.943  0.981  -16.677
Pt  -2.943  -0.981  -14.715
Pt  -4.905  0.981  -14.715
Pt  -4.905  -0.981  -12.753
Pt  -2.943  0.981  -12.753
Pt  -2.943  -0.981  -10.791
Pt  -4.905  0.981  -10.791
Pt  -4.905  -0.981  -8.829
Pt  -2.943  0.981  -8.829
Pt  -2.943  -0.981  -6.867
Pt  -4.905  0.981  -6.867
Pt  -4.905  -0.981  -4.905
Pt  -2.943  0.981  -4.905
Pt  -2.943  -0.981  -2.943
Pt  -4.905  0.981  -2.943
Pt  -4.905  -0.981  -0.981
Pt  -2.943  0.981  -0.981
Pt  -2.943  -0.981  0.981
Pt  -4.905  0.981  0.981
Pt  -4.905  -0.981  2.943
Pt  -2.943  0.981  2.943
Pt  -2.943  -0.981  4.905
Pt  -4.905  0.981  4.905
Pt  -4.905  -0.981  6.867
Pt  -2.943  0.981  6.867
Pt  -2.943  -0.981  8.829
Pt  -4.905  0.981  8.829
Pt  -4.905  -0.981  10.791
Pt  -2.943  0.981  10.791
Pt  -2.943  -0.981  12.753
Pt  -4.905  0.981  12.753
Pt  -4.905  -0.981  14.715
Pt  -2.943  0.981  14.715
Pt  -2.943  -0.981  16.677
Pt  -4.905  0.981  16.677
Pt  -4.905  -0.981  18.639
Pt  -2.943  0.981  18.639
Pt  -2.943  -0.981  20.601
Pt  -4.905  0.981  20.601
Pt  -4.905  -0.981  22.563
Pt  -2.943  0.981  22.563
Pt  -2.943  -0.981  24.525
Pt  -4.905  0.981  24.525
Pt  -4.905  -0.981  26.487
Pt  -2.943  0.981  26.487
Pt  -2.943  -0.981  28.449
Pt  -4.905  0.981  28.449
Pt  -4.905  2.943  -28.449
Pt  -2.943  4.905  -28.449
Pt  -2.943  2.943  -26.487
Pt  -4.905  4.905  -26.487
Pt  -4.905  2.943  -24.525
Pt  -2.943  4.905  -24.525
Pt  -2.943  2.943  -22.563
Pt  -4.905  4.905  -22.563
Pt  -4.905  2.943  -20.601
Pt  -2.943  4.905  -20.601
Pt  -2.943  2.943  -18.639
Pt  -4.905  4.905  -18.639
Pt  -4.905  2.943  -16.677
Pt  -2.943  4.905  -16.677
Pt  -2.943  2.943  -14.715
Pt  -4.905  4.905  -14.715
Pt  -4.905  2.943  -12.753
Pt  -2.943  4.905  -12.753
Pt  -2.943  2.943  -10.791
Pt  -4.905  4.905  -10.791
Pt  -4.905  2.943  -8.829
Pt  -2.943  4.905  -8.829
Pt  -2.943  2.943  -6.867
Pt  -4.905  4.905  -6.867
Pt  -4.905  2.943  -4.905
Pt  -2.943  4.905  -4.905
Pt  -2.943  2.943  -2.943
Pt  -4.905  4.905  -2.943
Pt  -4.905  2.943  -0.981
Pt  -2.943  4.905  -0.981
Pt  -2.943  2.943  0.981
Pt  -4.905  4.905  0.981
Pt  -4.905  2.943  2.943
Pt  -2.943  4.905  2.943
Pt  -2.943  2.943  4.905
Pt  -4.905  4.905  4.905
Pt  -4.905  2.943  6.867
Pt  -2.943  4.905  6.867
Pt  -2.943  2.943  8.829
Pt  -4.905  4.905  8.829
Pt  -4.905  2.943  10.791
Pt  -2.943  4.905  10.791
Pt  -2.943  2.943  12.753
Pt  -4.905  4.905  12.753
Pt  -4.905  2.943  14.715
Pt  -2.943  4.905  14.715
Pt  -2.943  2.943  16.677
Pt  -4.905  4.905  16.677
Pt  -4.905  2.943  18.639
Pt  -2.943  4.905  18.639
Pt  -2.943  2.943  20.601
Pt  -4.905  4.905  20.601
Pt  -4.905  2.943  22.563
Pt  -2.943  4.905  22.563
Pt  -2.943  2.943  24.525
Pt  -4.905  4.905  24.525
Pt  -4.905  2.943  26.487
Pt  -2.943  4.905  26.487
Pt  -2.943  2.943  28.449
Pt  -4.905  4.905  28.449
Pt  -4.905  6.867  -28.449
Pt  -2.943  6.867  -26.487
Pt  -4.905  8.829  -26.487
Pt  -4.905  6.867  -24.525
Pt  -2.943  8.829  -24.525
Pt  -2.943  6.867  -22.563
Pt  -4.905  8.829  -22.563
Pt  -4.905  6.867  -20.601
Pt  -2.943  8.829  -20.601
Pt  -2.943  6.867  -18.639
Pt  -4.905  8.829  -18.639
Pt  -4.905  6.867  -16.677
Pt  -2.943  8.829  -16.677
Pt  -2.943  6.867  -14.715
Pt  -4.905  8.829  -14.715
Pt  -4.905  6.867  -12.753
Pt  -2.943  8.829  -12.753
Pt  -2.943  6.867  -10.791
Pt  -4.905  8.829  -10.791
Pt  -4.905  6.867  -8.829
Pt  -2.943  8.829  -8.829
Pt  -2.943  6.867  -6.867
Pt  -4.905  8.829  -6.867
Pt  -4.905  6.867  -4.905
Pt  -2.943  8.829  -4.905
Pt  -2.943  6.867  -2.943
Pt  -4.905  8.829  -2.943
Pt  -4.905  6.867  -0.981
Pt  -2.943  8.829  -0.981
Pt  -2.943  6.867  0.981
Pt  -4.905  8.829  0.981
Pt  -4.905  6.867  2.943
Pt  -2.943  8.829  2.943
Pt  -2.943  6.867  4.905
Pt  -4.905  8.829  4.905
Pt  -4.905  6.867  6.867
Pt  -2.943  8.829  6.867
Pt  -2.943  6.867  8.829
Pt  -4.905  8.829  8.829
Pt  -4.905  6.867  10.791
Pt  -2.943  8.829  10.791
Pt  -2.943  6.867  12.753
Pt  -4.905  8.829  12.753
Pt  -4.905  6.867  14.715
Pt  -2.943  8.829  14.715
Pt  -2.943  6.867  16.677
Pt  -4.905  8.829  16.677
Pt  -4.905  6.867  18.639
Pt  -2.943  8.829  18.639
Pt  -2.943  6.867  20.601
Pt  -4.905  8.829  20.601
Pt  -4.905  6.867  22.563
Pt  -2.943  8.829  22.563
Pt  -2.943  6.867  24.525
Pt  -4.905  8.829  24.525
Pt  -4.905  6.867  26.487
Pt  -2.943  8.829  26.487
Pt  -2.943  6.867  28.449
Pt  -4.905  10.791  -24.525
Pt  -2.943  10.791  -22.563
Pt  -4.905  12.753  -22.563
Pt  -4.905  10.791  -20.601
Pt  -2.943  12.753  -20.601
Pt  -2.943  10.791  -18.639
Pt  -4.905  12.753  -18.639
Pt  -4.905  10.791  -16.677
Pt  -2.943  12.753  -16.677
Pt  -2.943  10.791  -14.715
Pt  -4.905  12.753  -14.715
Pt  -4.905  10.791  -12.753
Pt  -2.943  12.753  -12.753
Pt  -2.943  10.791  -10.791
Pt  -4.905  12.753  -10.791
Pt  -4.905  10.791  -8.829
Pt  -2.943  12.753  -8.829
Pt  -2.943  10.791  -6.867
Pt  -4.905  12.753  -6.867
Pt  -4.905  10.791  -4.905
Pt  -2.943  12.753  -4.905
Pt  -2.943  10.791  -2.943
Pt  -4.905  12.753  -2.943
Pt  -4.905  10.791  -0.981
Pt  -2.943  12.753  -0.981
Pt  -2.943  10.791  0.981
Pt  -4.905  12.753  0.981
Pt  -4.905  10.791  2.943
Pt  -2.943  12.753  2.943
Pt  -2.943  10.791  4.905
Pt  -4.905  12.753  4.905
Pt  -4.905  10.791  6.867
Pt  -2.943  12.753  6.867
Pt  -2.943  10.791  8.829
Pt  -4.905  12.753  8.829
Pt  -4.905  10.791  10.791
Pt  -2.943  12.753  10.791
Pt  -2.943  10.791  12.753
Pt  -4.905  12.753  12.753
Pt  -4.905  10.791  14.715
Pt  -2.943  12.753  14.715
Pt  -2.943  10.791  16.677
Pt  -4.905  12.753  16.677
Pt  -4.905  10.791  18.639
Pt  -2.943  12.753  18.639
Pt  -2.943  10.791  20.601
Pt  -4.905  12.753  20.601
Pt  -4.905  10.791  22.563
Pt  -2.943  12.753  22.563
Pt  -2.943  10.791  24.525
Pt  -4.905  14.715  -20.601
Pt  -2.943  14.715  -18.639
Pt  -4.905  16.677  -18.639
Pt  -4.905  14.715  -16.677
Pt  -2.943  16.677  -16.677
Pt  -2.943  14.715  -14.715
Pt  -4.905  16.677  -14.715
Pt  -4.905  14.715  -12.753
Pt  -2.943  16.677  -12.753
Pt  -2.943  14.715  -10.791
Pt  -4.905  16.677  -10.791
Pt  -4.905  14.715  -8.829
Pt  -2.943  16.677  -8.829
Pt  -2.943  14.715  -6.867
Pt  -4.905  16.677  -6.867
Pt  -4.905  14.715  -4.905
Pt  -2.943  16.677  -4.905
Pt  -2.943  14.715  -2.943
Pt  -4.905  16.677  -2.943
Pt  -4.905  14.715  -0.981
Pt  -2.943  16.677  -0.981
Pt  -2.943  14.715  0.981
Pt  -4.905  16.677  0.981
Pt  -4.905  14.715  2.943
Pt  -2.943  16.677  2.943
Pt  -2.943  14.715  4.905
Pt  -4.905  16.677  4.905
Pt  -4.905  14.715  6.867
Pt  -2.943  16.677  6.867
Pt  -2.943  14.715  8.829
Pt  -4.905  16.677  8.829
Pt  -4.905  14.715  10.791
Pt  -2.943  16.677  10.791
Pt  -2.943  14.715  12.753
Pt  -4.905  16.677  12.753
Pt  -4.905  14.715  14.715
Pt  -2.943  16.677  14.715
Pt  -2.943  14.715  16.677
Pt  -4.905  16.677  16.677
Pt  -4.905  14.715  18.639
Pt  -2.943  16.677  18.639
Pt  -2.943  14.715  20.601
Pt  -4.905  18.639  -16.677
Pt  -2.943  18.639  -14.715
Pt  -4.905  20.601  -14.715
Pt  -4.905  18.639  -12.753
Pt  -2.943  20.601  -12.753
Pt  -2.943  18.639  -10.791
Pt  -4.905  20.601  -10.791
Pt  -4.905  18.639  -8.829
Pt  -2.943  20.601  -8.829
Pt  -2.943  18.639  -6.867
Pt  -4.905  20.601  -6.867
Pt  -4.905  18.639  -4.905
Pt  -2.943  20.601  -4.905
Pt  -2.943  18.639  -2.943
Pt  -4.905  20.601  -2.943
Pt  -4.905  18.639  -0.981
Pt  -2.943  20.601  -0.981
Pt  -2.943  18.639  0.981
Pt  -4.905  20.601  0.981
Pt  -4.905  18.639  2.943
Pt  -2.943  20.601  2.943
Pt  -2.943  18.639  4.905
Pt  -4.905  20.601  4.905
Pt  -4.905  18.639  6.867
Pt  -2.943  20.601  6.867
Pt  -2.943  18.639  8.829
Pt  -4.905  20.601  8.829
Pt  -4.905  18.639  10.791
Pt  -2.943  20.601  10.791
Pt  -2.943  18.639  12.753
Pt  -4.905  20.601  12.753
Pt  -4.905  18.639  14.715
Pt  -2.943  20.601  14.715
Pt  -2.943  18.639  16.677
Pt  -4.905  22.563  -12.753
Pt  -2.943  22.563  -10.791
Pt  -4.905  24.525  -10.791
Pt  -4.905  22.563  -8.829
Pt  -2.943  24.525  -8.829
Pt  -2.943  22.563  -6.867
Pt  -4.905  24.525  -6.867
Pt  -4.905  22.563  -4.905
Pt  -2.943  24.525  -4.905
Pt  -2.943  22.563  -2.943
Pt  -4.905  24.525  -2.943
Pt  -4.905  22.563  -0.981
Pt  -2.943  24.525  -0.981
Pt  -2.943  22.563  0.981
Pt  -4.905  24.525  0.981
Pt  -4.905  22.563  2.943
Pt  -2.943  24.525  2.943
Pt  -2.943  22.563  4.905
Pt  -4.905  24.525  4.905
Pt  -4.905  22.563  6.867
Pt  -2.943  24.525  6.867
Pt  -2.943  22.563  8.829
Pt  -4.905  24.525  8.829
Pt  -4.905  22.563  10.791
Pt  -2.943  24.525  10.791
Pt  -2.943  22.563  12.753
Pt  -4.905  26.487  -8.829
Pt  -2.943  26.487  -6.867
Pt  -4.905  28.449  -6.867
Pt  -4.905  26.487  -4.905
Pt  -2.943  28.449  -4.905
Pt  -2.943  26.487  -2.943
Pt  -4.905  28.449  -2.943
Pt  -4.905  26.487  -0.981
Pt  -2.943  28.449  -0.981
Pt  -2.943  26.487  0.981
Pt  -4.905  28.449  0.981
Pt  -4.905  26.487  2.943
Pt  -2.943  28.449  2.943
Pt  -2.943  26.487  4.905
Pt  -4.905  28.449  4.905
Pt  -4.905  26.487  6.867
Pt  -2.943  28.449  6.867
Pt  -2.943  26.487  8.829
Pt  0.981  -26.487  -8.829
Pt  0.981  -28.449  -6.867
Pt  -0.981  -26.487  -6.867
Pt  -0.981  -28.449  -4.905
Pt  0.981  -26.487  -4.905
Pt  0.981  -28.449  -2.943
Pt  -0.981  -26.487  -2.943
Pt  -0.981  -28.449  -0.981
Pt  0.981  -26.487  -0.981
Pt  0.981  -28.449  0.981
Pt  -0.981  -26.487  0.981
Pt  -0.981  -28.449  2.943
Pt  0.981  -26.487  2.943
Pt  0.981  -28.449  4.905
Pt  -0.981  -26.487  4.905
Pt  -0.981  -28.449  6.867
Pt  0.981  -26.487  6.867
Pt  -0.981  -26.487  8.829
Pt  0.981  -22.563  -12.753
Pt  0.981  -24.525  -10.791
Pt  -0.981  -22.563  -10.791
Pt  -0.981  -24.525  -8.829
Pt  0.981  -22.563  -8.829
Pt  0.981  -24.525  -6.867
Pt  -0.981  -22.563  -6.867
Pt  -0.981  -24.525  -4.905
Pt  0.981  -22.563  -4.905
Pt  0.981  -24.525  -2.943
Pt  -0.981  -22.563  -2.943
Pt  -0.981  -24.525  -0.981
Pt  0.981  -22.563  -0.981
Pt  0.981  -24.525  0.981
Pt  -0.981  -22.563  0.981
Pt  -0.981  -24.525  2.943
Pt  0.981  -22.563  2.943
Pt  0.981  -24.525  4.905
Pt  -0.981  -22.563  4.905
Pt  -0.981  -24.525  6.867
Pt  0.981  -22.563  6.867
Pt  0.981  -24.525  8.829
Pt  -0.981  -22.563  8.829
Pt  -0.981  -24.525  10.791
Pt  0.981  -22.563  10.791
Pt  -0.981  -22.563  12.753
Pt  0.981  -18.639  -16.677
Pt  0.981  -20.601  -14.715
Pt  -0.981  -18.639  -14.715
Pt  -0.981  -20.601  -12.753
Pt  0.981  -18.639  -12.753
Pt  0.981  -20.601  -10.791
Pt  -0.981  -18.639  -10.791
Pt  -0.981  -20.601  -8.829
Pt  0.981  -18.639  -8.829
Pt  0.981  -20.601  -6.867
Pt  -0.981  -18.639  -6.867
Pt  -0.981  -20.601  -4.905
Pt  0.981  -18.639  -4.905
Pt  0.981  -20.601  -2.943
Pt  -0.981  -18.639  -2.943
Pt  -0.981  -20.601  -0.981
Pt  0.981  -18.639  -0.981
Pt  0.981  -20.601  0.981
Pt  -0.981  -18.639  0.981
Pt  -0.981  -20.601  2.943
Pt  0.981  -18.639  2.943
Pt  0.981  -20.601  4.905
Pt  -0.981  -18.639  4.905
Pt  -0.981  -20.601  6.867
Pt  0.981  -18.639  6.867
Pt  0.981  -20.601  8.829
Pt  -0.981  -18.639  8.829
Pt  -0.981  -20.601  10.791
Pt  0.981  -18.639  10.791
Pt  0.981  -20.601  12.753
Pt  -0.981  -18.639  12.753
Pt  -0.981  -20.601  14.715
Pt  0.981  -18.639  14.715
Pt  -0.981  -18.639  16.677
Pt  0.981  -14.715  -20.601
Pt  0.981  -16.677  -18.639
Pt  -0.981  -14.715  -18.639
Pt  -0.981  -16.677  -16.677
Pt  0.981  -14.715  -16.677
Pt  0.981  -16.677  -14.715
Pt  -0.981  -14.715  -14.715
Pt  -0.981  -16.677  -12.753
Pt  0.981  -14.715  -12.753
Pt  0.981  -16.677  -10.791
Pt  -0.981  -14.715  -10.791
Pt  -0.981  -16.677  -8.829
Pt  0.981  -14.715  -8.829
Pt  0.981  -16.677  -6.867
Pt  -0.981  -14.715  -6.867
Pt  -0.981  -16.677  -4.905
Pt  0.981  -14.715  -4.905
Pt  0.981  -16.677  -2.943
Pt  -0.981  -14.715  -2.943
Pt  -0.981  -16.677  -0.981
Pt  0.981  -14.715  -0.981
Pt  0.981  -16.677  0.981
Pt  -0.981  -14.715  0.981
Pt  -0.981  -16.677  2.943
Pt  0.981  -14.715  2.943
Pt  0.981  -16.677  4.905
Pt  -0.981  -14.715  4.905
Pt  -0.981  -16.677  6.867
Pt  0.981  -14.715  6.867
Pt  0.981  -16.677  8.829
Pt  -0.981  -14.715  8.829
Pt  -0.981  -16.677  10.791
Pt  0.981  -14.715  10.791
Pt  0.981  -16.677  12.753
Pt  -0.981  -14.715  12.753
Pt  -0.981  -16.677  14.715
Pt  0.981  -14.715  14.715
Pt  0.981  -16.677  16.677
Pt  -0.981  -14.715  16.677
Pt  -0.981  -16.677  18.639
Pt  0.981  -14.715  18.639
Pt  -0.981  -14.715  20.601
Pt  0.981  -10.791  -24.525
Pt  0.981  -12.753  -22.563
Pt  -0.981  -10.791  -22.563
Pt  -0.981  -12.753  -20.601
Pt  0.981  -10.791  -20.601
Pt  0.981  -12.753  -18.639
Pt  -0.981  -10.791  -18.639
Pt  -0.981  -12.753  -16.677
Pt  0.981  -10.791  -16.677
Pt  0.981  -12.753  -14.715
Pt  -0.981  -10.791  -14.715
Pt  -0.981  -12.753  -12.753
Pt  0.981  -10.791  -12.753
Pt  0.981  -12.753  -10.791
Pt  -0.981  -10.791  -10.791
Pt  -0.981  -12.753  -8.829
Pt  0.981  -10.791  -8.829
Pt  0.981  -12.753  -6.867
Pt  -0.981  -10.791  -6.867
Pt  -0.981  -12.753  -4.905
Pt  0.981  -10.791  -4.905
Pt  0.981  -12.753  -2.943
Pt  -0.981  -10.791  -2.943
Pt  -0.981  -12.753  -0.981
Pt  0.981  -10.791  -0.981
Pt  0.981  -12.753  0.981
Pt  -0.981  -10.791  0.981
Pt  -0.981  -12.753  2.943
Pt  0.981  -10.791  2.943
Pt  0.981  -12.753  4.905
Pt  -0.981  -10.791  4.905
Pt  -0.981  -12.753  6.867
Pt  0.981  -10.791  6.867
Pt  0.981  -12.753  8.829
Pt  -0.981  -10.791  8.829
Pt  -0.981  -12.753  10.791
Pt  0.981  -10.791  10.791
Pt  0.981  -12.753  12.753
Pt  -0.981  -10.791  12.753
Pt  -0.981  -12.753  14.715
Pt  0.981  -10.791  14.715
Pt  0.981  -12.753  16.677
Pt  -0.981  -10.791  16.677
Pt  -0.981  -12.753  18.639
Pt  0.981  -10.791  18.639
Pt  0.981  -12.753  20.601
Pt  -0.981  -10.791  20.601
Pt  -0.981  -12.753  22.563
Pt  0.981  -10.791  22.563
Pt  -0.981  -10.791  24.525
Pt  0.981  -6.867  -28.449
Pt  0.981  -8.829  -26.487
Pt  -0.981  -6.867  -26.487
Pt  -0.981  -8.829  -24.525
Pt  0.981  -6.867  -24.525
Pt  0.981  -8.829  -22.563
Pt  -0.981  -6.867  -22.563
Pt  -0.981  -8.829  -20.601
Pt  0.981  -6.867  -20.601
Pt  0.981  -8.829  -18.639
Pt  -0.981  -6.867  -18.639
Pt  -0.981  -8.829  -16.677
Pt  0.981  -6.867  -16.677
Pt  0.981  -8.829  -14.715
Pt  -0.981  -6.867  -14.715
Pt  -0.981  -8.829  -12.753
Pt  0.981  -6.867  -12.753
Pt  0.981  -8.829  -10.791
Pt  -0.981  -6.867  -10.791
Pt  -0.981  -8.829  -8.829
Pt  0.981  -6.867  -8.829
Pt  0.981  -8.829  -6.867
Pt  -0.981  -6.867  -6.867
Pt  -0.981  -8.829  -4.905
Pt  0.981  -6.867  -4.905
Pt  0.981  -8.829  -2.943
Pt  -0.981  -6.867  -2.943
Pt  -0.981  -8.829  -0.981
Pt  0.981  -6.867  -0.981
Pt  0.981  -8.829  0.981
Pt  -0.981  -6.867  0.981
Pt  -0.981  -8.829  2.943
Pt  0.981  -6.867  2.943
Pt  0.981  -8.829  4.905
Pt  -0.981  -6.867  4.905
Pt  -0.981  -8.829  6.867
Pt  0.981  -6.867  6.867
Pt  0.981  -8.829  8.829
Pt  -0.981  -6.867  8.829
Pt  -0.981  -8.829  10.791
Pt  0.981  -6.867  10.791
Pt  0.981  -8.829  12.753
Pt  -0.981  -6.867  12.753
Pt  -0.981  -8.829  14.715
Pt  0.981  -6.867  14.715
Pt  0.981  -8.829  16.677
Pt  -0.981  -6.867  16.677
Pt  -0.981  -8.829  18.639
Pt  0.981  -6.867  18.639
Pt  0.981  -8.829  20.601
Pt  -0.981  -6.867  20.601
Pt  -0.981  -8.829  22.563
Pt  0.981  -6.867  22.563
Pt  0.981  -8.829  24.525
Pt  -0.981  -6.867  24.525
Pt  -0.981  -8.829  26.487
Pt  0.981  -6.867  26.487
Pt  -0.981  -6.867  28.449
Pt  -0.981  -4.905  -28.449
Pt  0.981  -2.943  -28.449
Pt  0.981  -4.905  -26.487
Pt  -0.981  -2.943  -26.487
Pt  -0.981  -4.905  -24.525
Pt  0.981  -2.943  -24.525
Pt  0.981  -4.905  -22.563
Pt  -0.981  -2.943  -22.563
Pt  -0.981  -4.905  -20.601
Pt  0.981  -2.943  -20.601
Pt  0.981  -4.905  -18.639
Pt  -0.981  -2.943  -18.639
Pt  -0.981  -4.905  -16.677
Pt  0.981  -2.943  -16.677
Pt  0.981  -4.905  -14.715
Pt  -0.981  -2.943  -14.715
Pt  -0.981  -4.905  -12.753
Pt  0.981  -2.943  -12.753
Pt  0.981  -4.905  -10.791
Pt  -0.981  -2.943  -10.791
Pt  -0.981  -4.905  -8.829
Pt  0.981  -2.943  -8.829
Pt  0.981  -4.905  -6.867
Pt  -0.981  -2.943  -6.867
Pt  -0.981  -4.905  -4.905
Pt  0.981  -2.943  -4.905
Pt  0.981  -4.905  -2.943
Pt  -0.981  -2.943  -2.943
Pt  -0.981  -4.905  -0.981
Pt  0.981  -2.943  -0.981
Pt  0.981  -4.905  0.981
Pt  -0.981  -2.943  0.981
Pt  -0.981  -4.905  2.943
Pt  0.981  -2.943  2.943
Pt  0.981  -4.905  4.905
Pt  -0.981  -2.943  4.905
Pt  -0.981  -4.905  6.867
Pt  0.981  -2.943  6.867
Pt  0.981  -4.905  8.829
Pt  -0.981  -2.943  8.829
Pt  -0.981  -4.905  10.791
Pt  0.981  -2.943  10.791
Pt  0.981  -4.905  12.753
Pt  -0.981  -2.943  12.753
Pt  -0.981  -4.905  14.715
Pt  0.981  -2.943  14.715
Pt  0.981  -4.905  16.677
Pt  -0.981  -2.943  16.677
Pt  -0.981  -4.905  18.639
Pt  0.981  -2.943  18.639
Pt  0.981  -4.905  20.601
Pt  -0.981  -2.943  20.601
Pt  -0.981  -4.905  22.563
Pt  0.981  -2.943  22.563
Pt  0.981  -4.905  24.525
Pt  -0.981  -2.943  24.525
Pt  -0.981  -4.905  26.487
Pt  0.981  -2.943  26.487
Pt  0.981  -4.905  28.449
Pt  -0.981  -2.943  28.449
Pt  -0.981  -0.981  -28.449
Pt  0.981  0.981  -28.449
Pt  0.981  -0.981  -26.487
Pt  -0.981  0.981  -26.487
Pt  -0.981  -0.981  -24.525
Pt  0.981  0.981  -24.525
Pt  0.981  -0.981  -22.563
Pt  -0.981  0.981  -22.563
Pt  -0.981  -0.981  -20.601
Pt  0.981  0.981  -20.601
Pt  0.981  -0.981  -18.639
Pt  -0.981  0.981  -18.639
Pt  -0.981  -0.981  -16.677
Pt  0.981  0.981  -16.677
Pt  0.981  -0.981  -14.715
Pt  -0.981  0.981  -14.715
Pt  -0.981  -0.981  -12.753
Pt  0.981  0.981  -12.753
Pt  0.981  -0.981  -10.791
Pt  -0.981  0.981  -10.791
Pt  -0.981  -0.981  -8.829
Pt  0.981  0.981  -8.829
Pt  0.981  -0.981  -6.867
Pt  -0.981  0.981  -6.867
Pt  -0.981  -0.981  -4.905
Pt  0.981  0.981  -4.905
Pt  0.981  -0.981  -2.943
Pt  -0.981  0.981  -2.943
Pt  -0.981  -0.981  -0.981
Pt  0.981  0.981  -0.981
Pt  0.981  -0.981  0.981
Pt  -0.981  0.981  0.981
Pt  -0.981  -0.981  2.943
Pt  0.981  0.981  2.943
Pt  0.981  -0.981  4.905
Pt  -0.981  0.981  4.905
Pt  -0.981  -0.981  6.867
Pt  0.981  0.981  6.867
Pt  0.981  -0.981  8.829
Pt  -0.981  0.981  8.829
Pt  -0.981  -0.981  10.791
Pt  0.981  0.981  10.791
Pt  0.981  -0.981  12.753
Pt  -0.981  0.981  12.753
Pt  -0.981  -0.981  14.715
Pt  0.981  0.981  14.715
Pt  0.981  -0.981  16.677
Pt  -0.981  0.981  16.677
Pt  -0.981  -0.981  18.639
Pt  0.981  0.981  18.639
Pt  0.981  -0.981  20.601
Pt  -0.981  0.981  20.601
Pt  -0.981  -0.981  22.563
Pt  0.981  0.981  22.563
Pt  0.981  -0.981  24.525
Pt  -0.981  0.981  24.525
Pt  -0.981  -0.981  26.487
Pt  0.981  0.981  26.487
Pt  0.981  -0.981  28.449
Pt  -0.981  0.981  28.449
Pt  -0.981  2.943  -28.449
Pt  0.981  4.905  -28.449
Pt  0.981  2.943  -26.487
Pt  -0.981  4.905  -26.487
Pt  -0.981  2.943  -24.525
Pt  0.981  4.905  -24.525
Pt  0.981  2.943  -22.563
Pt  -0.981  4.905  -22.563
Pt  -0.981  2.943  -20.601
Pt  0.981  4.905  -20.601
Pt  0.981  2.943  -18.639
Pt  -0.981  4.905  -18.639
Pt  -0.981  2.943  -16.677
Pt  0.981  4.905  -16.677
Pt  0.981  2.943  -14.715
Pt  -0.981  4.905  -14.715
Pt  -0.981  2.943  -12.753
Pt  0.981  4.905  -12.753
Pt  0.981  2.943  -10.791
Pt  -0.981  4.905  -10.791
Pt  -0.981  2.943  -8.829
Pt  0.981  4.905  -8.829
Pt  0.981  2.943  -6.867
Pt  -0.981  4.905  -6.867
Pt  -0.981  2.943  -4.905
Pt  0.981  4.905  -4.905
Pt  0.981  2.943  -2.943
Pt  -0.981  4.905  -2.943
Pt  -0.981  2.943  -0.981
Pt  0.981  4.905  -0.981
Pt  0.981  2.943  0.981
Pt  -0.981  4.905  0.981
Pt  -0.981  2.943  2.943
Pt  0.981  4.905  2.943
Pt  0.981  2.943  4.905
Pt  -0.981  4.905  4.905
Pt  -0.981  2.943  6.867
Pt  0.981  4.905  6.867
Pt  0.981  2.943  8.829
Pt  -0.981  4.905  8.829
Pt  -0.981  2.943  10.791
Pt  0.981  4.905  10.791
Pt  0.981  2.943  12.753
Pt  -0.981  4.905  12.753
Pt  -0.981  2.943  14.715
Pt  0.981  4.905  14.715
Pt  0.981  2.943  16.677
Pt  -0.981  4.905  16.677
Pt  -0.981  2.943  18.639
Pt  0.981  4.905  18.639
Pt  0.981  2.943  20.601
Pt  -0.981  4.905  20.601
Pt  -0.981  2.943  22.563
Pt  0.981  4.905  22.563
Pt  0.981  2.943  24.525
Pt  -0.981  4.905  24.525
Pt  -0.981  2.943  26.487
Pt  0.981  4.905  26.487
Pt  0.981  2.943  28.449
Pt  -0.981  4.905  28.449
Pt  -0.981  6.867  -28.449
Pt  0.981  6.867  -26.487
Pt  -0.981  8.829  -26.487
Pt  -0.981  6.867  -24.525
Pt  0.981  8.829  -24.525
Pt  0.981  6.867  -22.563
Pt  -0.981  8.829  -22.563
Pt  -0.981  6.867  -20.601
Pt  0.981  8.829  -20.601
Pt  0.981  6.867  -18.639
Pt  -0.981  8.829  -18.639
Pt  -0.981  6.867  -16.677
Pt  0.981  8.829  -16.677
Pt  0.981  6.867  -14.715
Pt  -0.981  8.829  -14.715
Pt  -0.981  6.867  -12.753
Pt  0.981  8.829  -12.753
Pt  0.981  6.867  -10.791
Pt  -0.981  8.829  -10.791
Pt  -0.981  6.867  -8.829
Pt  0.981  8.829  -8.829
Pt  0.981  6.867  -6.867
Pt  -0.981  8.829  -6.867
Pt  -0.981  6.867  -4.905
Pt  0.981  8.829  -4.905
Pt  0.981  6.867  -2.943
Pt  -0.981  8.829  -2.943
Pt  -0.981  6.867  -0.981
Pt  0.981  8.829  -0.981
Pt  0.981  6.867  0.981
Pt  -0.981  8.829  0.981
Pt  -0.981  6.867  2.943
Pt  0.981  8.829  2.943
Pt  0.981  6.867  4.905
Pt  -0.981  8.829  4.905
Pt  -0.981  6.867  6.867
Pt  0.981  8.829  6.867
Pt  0.981  6.867  8.829
Pt  -0.981  8.829  8.829
Pt  -0.981  6.867  10.791
Pt  0.981  8.829  10.791
Pt  0.981  6.867  12.753
Pt  -0.981  8.829  12.753
Pt  -0.981  6.867  14.715
Pt  0.981  8.829  14.715
Pt  0.981  6.867  16.677
Pt  -0.981  8.829  16.677
Pt  -0.981  6.867  18.639
Pt  0.981  8.829  18.639
Pt  0.981  6.867  20.601
Pt  -0.981  8.829  20.601
Pt  -0.981  6.867  22.563
Pt  0.981  8.829  22.563
Pt  0.981  6.867  24.525
Pt  -0.981  8.829  24.525
Pt  -0.981  6.867  26.487
Pt  0.981  8.829  26.487
Pt  0.981  6.867  28.449
Pt  -0.981  10.791  -24.525
Pt  0.981  10.791  -22.563
Pt  -0.981  12.753  -22.563
Pt  -0.981  10.791  -20.601
Pt  0.981  12.753  -20.601
Pt  0.981  10.791  -18.639
Pt  -0.981  12.753  -18.639
Pt  -0.981  10.791  -16.677
Pt  0.981  12.753  -16.677
Pt  0.981  10.791  -14.715
Pt  -0.981  12.753  -14.715
Pt  -0.981  10.791  -12.753
Pt  0.981  12.753  -12.753
Pt  0.981  10.791  -10.791
Pt  -0.981  12.753  -10.791
Pt  -0.981  10.791  -8.829
Pt  0.981  12.753  -8.829
Pt  0.981  10.791  -6.867
Pt  -0.981  12.753  -6.867
Pt  -0.981  10.791  -4.905
Pt  0.981  12.753  -4.905
Pt  0.981  10.791  -2.943
Pt  -0.981  12.753  -2.943
Pt  -0.981  10.791  -0.981
Pt  0.981  12.753  -0.981
Pt  0.981  10.791  0.981
Pt  -0.981  12.753  0.981
Pt  -0.981  10.791  2.943
Pt  0.981  12.753  2.943
Pt  0.981  10.791  4.905
Pt  -0.981  12.753  4.905
Pt  -0.981  10.791  6.867
Pt  0.981  12.753  6.867
Pt  0.981  10.791  8.829
Pt  -0.981  12.753  8.829
Pt  -0.981  10.791  10.791
Pt  0.981  12.753  10.791
Pt  0.981  10.791  12.753
Pt  -0.981  12.753  12.753
Pt  -0.981  10.791  14.715
Pt  0.981  12.753  14.715
Pt  0.981  10.791  16.677
Pt  -0.981  12.753  16.677
Pt  -0.981  10.791  18.639
Pt  0.981  12.753  18.639
Pt  0.981  10.791  20.601
Pt  -0.981  12.753  20.601
Pt  -0.981  10.791  22.563
Pt  0.981  12.753  22.563
Pt  0.981  10.791  24.525
Pt  -0.981  14.715  -20.601
Pt  0.981  14.715  -18.639
Pt  -0.981  16.677  -18.639
Pt  -0.981  14.715  -16.677
Pt  0.981  16.677  -16.677
Pt  0.981  14.715  -14.715
Pt  -0.981  16.677  -14.715
Pt  -0.981  14.715  -12.753
Pt  0.981  16.677  -12.753
Pt  0.981  14.715  -10.791
Pt  -0.981  16.677  -10.791
Pt  -0.981  14.715  -8.829
Pt  0.981  16.677  -8.829
Pt  0.981  14.715  -6.867
Pt  -0.981  16.677  -6.867
Pt  -0.981  14.715  -4.905
Pt  0.981  16.677  -4.905
Pt  0.981  14.715  -2.943
Pt  -0.981  16.677  -2.943
Pt  -0.981  14.715  -0.981
Pt  0.981  16.677  -0.981
Pt  0.981  14.715  0.981
Pt  -0.981  16.677  0.981
Pt  -0.981  14.715  2.943
Pt  0.981  16.677  2.943
Pt  0.981  14.715  4.905
Pt  -0.981  16.677  4.905
Pt  -0.981  14.715  6.867
Pt  0.981  16.677  6.867
Pt  0.981  14.715  8.829
Pt  -0.981  16.677  8.829
Pt  -0.981  14.715  10.791
Pt  0.981  16.677  10.791
Pt  0.981  14.715  12.753
Pt  -0.981  16.677  12.753
Pt  -0.981  14.715  14.715
Pt  0.981  16.677  14.715
Pt  0.981  14.715  16.677
Pt  -0.981  16.677  16.677
Pt  -0.981  14.715  18.639
Pt  0.981  16.677  18.639
Pt  0.981  14.715  20.601
Pt  -0.981  18.639  -16.677
Pt  0.981  18.639  -14.715
Pt  -0.981  20.601  -14.715
Pt  -0.981  18.639  -12.753
Pt  0.981  20.601  -12.753
Pt  0.981  18.639  -10.791
Pt  -0.981  20.601  -10.791
Pt  -0.981  18.639  -8.829
Pt  0.981  20.601  -8.829
Pt  0.981  18.639  -6.867
Pt  -0.981  20.601  -6.867
Pt  -0.981  18.639  -4.905
Pt  0.981  20.601  -4.905
Pt  0.981  18.639  -2.943
Pt  -0.981  20.601  -2.943
Pt  -0.981  18.639  -0.981
Pt  0.981  20.601  -0.981
Pt  0.981  18.639  0.981
Pt  -0.981  20.601  0.981
Pt  -0.981  18.639  2.943
Pt  0.981  20.601  2.943
Pt  0.981  18.639  4.905
Pt  -0.981  20.601  4.905
Pt  -0.981  18.639  6.867
Pt  0.981  20.601  6.867
Pt  0.981  18.639  8.829
Pt  -0.981  20.601  8.829
Pt  -0.981  18.639  10.791
Pt  0.981  20.601  10.791
Pt  0.981  18.639  12.753
Pt  -0.981  20.601  12.753
Pt  -0.981  18.639  14.715
Pt  0.981  20.601  14.715
Pt  0.981  18.639  16.677
Pt  -0.981  22.563  -12.753
Pt  0.981  22.563  -10.791
Pt  -0.981  24.525  -10.791
Pt  -0.981  22.563  -8.829
Pt  0.981  24.525  -8.829
Pt  0.981  22.563  -6.867
Pt  -0.981  24.525  -6.867
Pt  -0.981  22.563  -4.905
Pt  0.981  24.525  -4.905
Pt  0.981  22.563  -2.943
Pt  -0.981  24.525  -2.943
Pt  -0.981  22.563  -0.981
Pt  0.981  24.525  -0.981
Pt  0.981  22.563  0.981
Pt  -0.981  24.525  0.981
Pt  -0.981  22.563  2.943
Pt  0.981  24.525  2.943
Pt  0.981  22.563  4.905
Pt  -0.981  24.525  4.905
Pt  -0.981  22.563  6.867
Pt  0.981  24.525  6.867
Pt  0.981  22.563  8.829
Pt  -0.981  24.525  8.829
Pt  -0.981  22.563  10.791
Pt  0.981  24.525  10.791
Pt  0.981  22.563  12.753
Pt  -0.981  26.487  -8.829
Pt  0.981  26.487  -6.867
Pt  -0.981  28.449  -6.867
Pt  -0.981  26.487  -4.905
Pt  0.981  28.449  -4.905
Pt  0.981  26.487  -2.943
Pt  -0.981  28.449  -2.943
Pt  -0.981  26.487  -0.981
Pt  0.981  28.449  -0.981
Pt  0.981  26.487  0.981
Pt  -0.981  28.449  0.981
Pt  -0.981  26.487  2.943
Pt  0.981  28.449  2.943
Pt  0.981  26.487  4.905
Pt  -0.981  28.449  4.905
Pt  -0.981  26.487  6.867
Pt  0.981  28.449  6.867
Pt  0.981  26.487  8.829
Pt  4.905  -26.487  -8.829
Pt  4.905  -28.449  -6.867
Pt  2.943  -26.487  -6.867
Pt  2.943  -28.449  -4.905
Pt  4.905  -26.487  -4.905
Pt  4.905  -28.449  -2.943
Pt  2.943  -26.487  -2.943
Pt  2.943  -28.449  -0.981
Pt  4.905  -26.487  -0.981
Pt  4.905  -28.449  0.981
Pt  2.943  -26.487  0.981
Pt  2.943  -28.449  2.943
Pt  4.905  -26.487  2.943
Pt  4.905  -28.449  4.905
Pt  2.943  -26.487  4.905
Pt  2.943  -28.449  6.867
Pt  4.905  -26.487  6.867
Pt  2.943  -26.487  8.829
Pt  4.905  -22.563  -12.753
Pt  4.905  -24.525  -10.791
Pt  2.943  -22.563  -10.791
Pt  2.943  -24.525  -8.829
Pt  4.905  -22.563  -8.829
Pt  4.905  -24.525  -6.867
Pt  2.943  -22.563  -6.867
Pt  2.943  -24.525  -4.905
Pt  4.905  -22.563  -4.905
Pt  4.905  -24.525  -2.943
Pt  2.943  -22.563  -2.943
Pt  2.943  -24.525  -0.981
Pt  4.905  -22.563  -0.981
Pt  4.905  -24.525  0.981
Pt  2.943  -22.563  0.981
Pt  2.943  -24.525  2.943
Pt  4.905  -22.563  2.943
Pt  4.905  -24.525  4.905
Pt  2.943  -22.563  4.905
Pt  2.943  -24.525  6.867
Pt  4.905  -22.563  6.867
Pt  4.905  -24.525  8.829
Pt  2.943  -22.563  8.829
Pt  2.943  -24.525  10.791
Pt  4.905  -22.563  10.791
Pt  2.943  -22.563  12.753
Pt  4.905  -18.639  -16.677
Pt  4.905  -20.601  -14.715
Pt  2.943  -18.639  -14.715
Pt  2.943  -20.601  -12.753
Pt  4.905  -18.639  -12.753
Pt  4.905  -20.601  -10.791
Pt  2.943  -18.639  -10.791
Pt  2.943  -20.601  -8.829
Pt  4.905  -18.639  -8.829
Pt  4.905  -20.601  -6.867
Pt  2.943  -18.639  -6.867
Pt  2.943  -20.601  -4.905
Pt  4.905  -18.639  -4.905
Pt  4.905  -20.601  -2.943
Pt  2.943  -18.639  -2.943
Pt  2.943  -20.601  -0.981
Pt  4.905  -18.639  -0.981
Pt  4.905  -20.601  0.981
Pt  2.943  -18.639  0.981
Pt  2.943  -20.601  2.943
Pt  4.905  -18.639  2.943
Pt  4.905  -20.601  4.905
Pt  2.943  -18.639  4.905
Pt  2.943  -20.601  6.867
Pt  4.905  -18.639  6.867
Pt  4.905  -20.601  8.829
Pt  2.943  -18.639  8.829
Pt  2.943  -20.601  10.791
Pt  4.905  -18.639  10.791
Pt  4.905  -20.601  12.753
Pt  2.943  -18.639  12.753
Pt  2.943  -20.601  14.715
Pt  4.905  -18.639  14.715
Pt  2.943  -18.639  16.677
Pt  4.905  -14.715  -20.601
Pt  4.905  -16.677  -18.639
Pt  2.943  -14.715  -18.639
Pt  2.943  -16.677  -16.677
Pt  4.905  -14.715  -16.677
Pt  4.905  -16.677  -14.715
Pt  2.943  -14.715  -14.715
Pt  2.943  -16.677  -12.753
Pt  4.905  -14.715  -12.753
Pt  4.905  -16.677  -10.791
Pt  2.943  -14.715  -10.791
Pt  2.943  -16.677  -8.829
Pt  4.905  -14.715  -8.829
Pt  4.905  -16.677  -6.867
Pt  2.943  -14.715  -6.867
Pt  2.943  -16.677  -4.905
Pt  4.905  -14.715  -4.905
Pt  4.905  -16.677  -2.943
Pt  2.943  -14.715  -2.943
Pt  2.943  -16.677  -0.981
Pt  4.905  -14.715  -0.981
Pt  4.905  -16.677  0.981
Pt  2.943  -14.715  0.981
Pt  2.943  -16.677  2.943
Pt  4.905  -14.715  2.943
Pt  4.905  -16.677  4.905
Pt  2.943  -14.715  4.905
Pt  2.943  -16.677  6.867
Pt  4.905  -14.715  6.867
Pt  4.905  -16.677  8.829
Pt  2.943  -14.715  8.829
Pt  2.943  -16.677  10.791
Pt  4.905  -14.715  10.791
Pt  4.905  -16.677  12.753
Pt  2.943  -14.715  12.753
Pt  2.943  -16.677  14.715
Pt  4.905  -14.715  14.715
Pt  4.905  -16.677  16.677
Pt  2.943  -14.715  16.677
Pt  2.943  -16.677  18.639
Pt  4.905  -14.715  18.639
Pt  2.943  -14.715  20.601
Pt  4.905  -10.791  -24.525
Pt  4.905  -12.753  -22.563
Pt  2.943  -10.791  -22.563
Pt  2.943  -12.753  -20.601
Pt  4.905  -10.791  -20.601
Pt  4.905  -12.753  -18.639
Pt  2.943  -10.791  -18.639
Pt  2.943  -12.753  -16.677
Pt  4.905  -10.791  -16.677
Pt  4.905  -12.753  -14.715
Pt  2.943  -10.791  -14.715
Pt  2.943  -12.753  -12.753
Pt  4.905  -10.791  -12.753
Pt  4.905  -12.753  -10.791
Pt  2.943  -10.791  -10.791
Pt  2.943  -12.753  -8.829
Pt  4.905  -10.791  -8.829
Pt  4.905  -12.753  -6.867
Pt  2.943  -10.791  -6.867
Pt  2.943  -12.753  -4.905
Pt  4.905  -10.791  -4.905
Pt  4.905  -12.753  -2.943
Pt  2.943  -10.791  -2.943
Pt  2.943  -12.753  -0.981
Pt  4.905  -10.791  -0.981
Pt  4.905  -12.753  0.981
Pt  2.943  -10.791  0.981
Pt  2.943  -12.753  2.943
Pt  4.905  -10.791  2.943
Pt  4.905  -12.753  4.905
Pt  2.943  -10.791  4.905
Pt  2.943  -12.753  6.867
Pt  4.905  -10.791  6.867
Pt  4.905  -12.753  8.829
Pt  2.943  -10.791  8.829
Pt  2.943  -12.753  10.791
Pt  4.905  -10.791  10.791
Pt  4.905  -12.753  12.753
Pt  2.943  -10.791  12.753
Pt  2.943  -12.753  14.715
Pt  4.905  -10.791  14.715
Pt  4.905  -12.753  16.677
Pt  2.943  -10.791  16.677
Pt  2.943  -12.753  18.639
Pt  4.905  -10.791  18.639
Pt  4.905  -12.753  20.601
Pt  2.943  -10.791  20.601
Pt  2.943  -12.753  22.563
Pt  4.905  -10.791  22.563
Pt  2.943  -10.791  24.525
Pt  4.905  -6.867  -28.449
Pt  4.905  -8.829  -26.487
Pt  2.943  -6.867  -26.487
Pt  2.943  -8.829  -24.525
Pt  4.905  -6.867  -24.525
Pt  4.905  -8.829  -22.563
Pt  2.943  -6.867  -22.563
Pt  2.943  -8.829  -20.601
Pt  4.905  -6.867  -20.601
Pt  4.905  -8.829  -18.639
Pt  2.943  -6.867  -18.639
Pt  2.943  -8.829  -16.677
Pt  4.905  -6.867  -16.677
Pt  4.905  -8.829  -14.715
Pt  2.943  -6.867  -14.715
Pt  2.943  -8.829  -12.753
Pt  4.905  -6.867  -12.753
Pt  4.905  -8.829  -10.791
Pt  2.943  -6.867  -10.791
Pt  2.943  -8.829  -8.829
Pt  4.905  -6.867  -8.829
Pt  4.905  -8.829  -6.867
Pt  2.943  -6.867  -6.867
Pt  2.943  -8.829  -4.905
Pt  4.905  -6.867  -4.905
Pt  4.905  -8.829  -2.943
Pt  2.943  -6.867  -2.943
Pt  2.943  -8.829  -0.981
Pt  4.905  -6.867  -0.981
Pt  4.905  -8.829  0.981
Pt  2.943  -6.867  0.981
Pt  2.943  -8.829  2.943
Pt  4.905  -6.867  2.943
Pt  4.905  -8.829  4.905
Pt  2.943  -6.867  4.905
Pt  2.943  -8.829  6.867
Pt  4.905  -6.867  6.867
Pt  4.905  -8.829  8.829
Pt  2.943  -6.867  8.829
Pt  2.943  -8.829  10.791
Pt  4.905  -6.867  10.791
Pt  4.905  -8.829  12.753
Pt  2.943  -6.867  12.753
Pt  2.943  -8.829  14.715
Pt  4.905  -6.867  14.715
Pt  4.905  -8.829  16.677
Pt  2.943  -6.867  16.677
Pt  2.943  -8.829  18.639
Pt  4.905  -6.867  18.639
Pt  4.905  -8.829  20.601
Pt  2.943  -6.867  20.601
Pt  2.943  -8.829  22.563
Pt  4.905  -6.867  22.563
Pt  4.905  -8.829  24.525
Pt  2.943  -6.867  24.525
Pt  2.943  -8.829  26.487
Pt  4.905  -6.867  26.487
Pt  2.943  -6.867  28.449
Pt  2.943  -4.905  -28.449
Pt  4.905  -2.943  -28.449
Pt  4.905  -4.905  -26.487
Pt  2.943  -2.943  -26.487
Pt  2.943  -4.905  -24.525
Pt  4.905  -2.943  -24.525
Pt  4.905  -4.905  -22.563
Pt  2.943  -2.943  -22.563
Pt  2.943  -4.905  -20.601
Pt  4.905  -2.943  -20.601
Pt  4.905  -4.905  -18.639
Pt  2.943  -2.943  -18.639
Pt  2.943  -4.905  -16.677
Pt  4.905  -2.943  -16.677
Pt  4.905  -4.905  -14.715
Pt  2.943  -2.943  -14.715
Pt  2.943  -4.905  -12.753
Pt  4.905  -2.943  -12.753
Pt  4.905  -4.905  -10.791
Pt  2.943  -2.943  -10.791
Pt  2.943  -4.905  -8.829
Pt  4.905  -2.943  -8.829
Pt  4.905  -4.905  -6.867
Pt  2.943  -2.943  -6.867
Pt  2.943  -4.905  -4.905
Pt  4.905  -2.943  -4.905
Pt  4.905  -4.905  -2.943
Pt  2.943  -2.943  -2.943
Pt  2.943  -4.905  -0.981
Pt  4.905  -2.943  -0.981
Pt  4.905  -4.905  0.981
Pt  2.943  -2.943  0.981
Pt  2.943  -4.905  2.943
Pt  4.905  -2.943  2.943
Pt  4.905  -4.905  4.905
Pt  2.943  -2.943  4.905
Pt  2.943  -4.905  6.867
Pt  4.905  -2.943  6.867
Pt  4.905  -4.905  8.829
Pt  2.943  -2.943  8.829
Pt  2.943  -4.905  10.791
Pt  4.905  -2.943  10.791
Pt  4.905  -4.905  12.753
Pt  2.943  -2.943  12.753
Pt  2.943  -4.905  14.715
Pt  4.905  -2.943  14.715
Pt  4.905  -4.905  16.677
Pt  2.943  -2.943  16.677
Pt  2.943  -4.905  18.639
Pt  4.905  -2.943  18.639
Pt  4.905  -4.905  20.601
Pt  2.943  -2.943  20.601
Pt  2.943  -4.905  22.563
Pt  4.905  -2.943  22.563
Pt  4.905  -4.905  24.525
Pt  2.943  -2.943  24.525
Pt  2.943  -4.905  26.487
Pt  4.905  -2.943  26.487
Pt  4.905  -4.905  28.449
Pt  2.943  -2.943  28.449
Pt  2.943  -0.981  -28.449
Pt  4.905  0.981  -28.449
Pt  4.905  -0.981  -26.487
Pt  2.943  0.981  -26.487
Pt  2.943  -0.981  -24.525
Pt  4.905  0.981  -24.525
Pt  4.905  -0.981  -22.563
Pt  2.943  0.981  -22.563
Pt  2.943  -0.981  -20.601
Pt  4.905  0.981  -20.601
Pt  4.905  -0.981  -18.639
Pt  2.943  0.981  -18.639
Pt  2.943  -0.981  -16.677
Pt  4.905  0.981  -16.677
Pt  4.905  -0.981  -14.715
Pt  2.943  0.981  -14.715
Pt  2.943  -0.981  -12.753
Pt  4.905  0.981  -12.753
Pt  4.905  -0.981  -10.791
Pt  2.943  0.981  -10.791
Pt  2.943  -0.981  -8.829
Pt  4.905  0.981  -8.829
Pt  4.905  -0.981  -6.867
Pt  2.943  0.981  -6.867
Pt  2.943  -0.981  -4.905
Pt  4.905  0.981  -4.905
Pt  4.905  -0.981  -2.943
Pt  2.943  0.981  -2.943
Pt  2.943  -0.981  -0.981
Pt  4.905  0.981  -0.981
Pt  4.905  -0.981  0.981
Pt  2.943  0.981  0.981
Pt  2.943  -0.981  2.943
Pt  4.905  0.981  2.943
Pt  4.905  -0.981  4.905
Pt  2.943  0.981  4.905
Pt  2.943  -0.981  6.867
Pt  4.905  0.981  6.867
Pt  4.905  -0.981  8.829
Pt  2.943  0.981  8.829
Pt  2.943  -0.981  10.791
Pt  4.905  0.981  10.791
Pt  4.905  -0.981  12.753
Pt  2.943  0.981  12.753
Pt  2.943  -0.981  14.715
Pt  4.905  0.981  14.715
Pt  4.905  -0.981  16.677
Pt  2.943  0.981  16.677
Pt  2.943  -0.981  18.639
Pt  4.905  0.981  18.639
Pt  4.905  -0.981  20.601
Pt  2.943  0.981  20.601
Pt  2.943  -0.981  22.563
Pt  4.905  0.981  22.563
Pt  4.905  -0.981  24.525
Pt  2.943  0.981  24.525
Pt  2.943  -0.981  26.487
Pt  4.905  0.981  26.487
Pt  4.905  -0.981  28.449
Pt  2.943  0.981  28.449
Pt  2.943  2.943  -28.449
Pt  4.905  4.905  -28.449
Pt  4.905  2.943  -26.487
Pt  2.943  4.905  -26.487
Pt  2.943  2.943  -24.525
Pt  4.905  4.905  -24.525
Pt  4.905  2.943  -22.563
Pt  2.943  4.905  -22.563
Pt  2.943  2.943  -20.601
Pt  4.905  4.905  -20.601
Pt  4.905  2.943  -18.639
Pt  2.943  4.905  -18.639
Pt  2.943  2.943  -16.677
Pt  4.905  4.905  -16.677
Pt  4.905  2.943  -14.715
Pt  2.943  4.905  -14.715
Pt  2.943  2.943  -12.753
Pt  4.905  4.905  -12.753
Pt  4.905  2.943  -10.791
Pt  2.943  4.905  -10.791
Pt  2.943  2.943  -8.829
Pt  4.905  4.905  -8.829
Pt  4.905  2.943  -6.867
Pt  2.943  4.905  -6.867
Pt  2.943  2.943  -4.905
Pt  4.905  4.905  -4.905
Pt  4.905  2.943  -2.943
Pt  2.943  4.905  -2.943
Pt  2.943  2.943  -0.981
Pt  4.905  4.905  -0.981
Pt  4.905  2.943  0.981
Pt  2.943  4.905  0.981
Pt  2.943  2.943  2.943
Pt  4.905  4.905  2.943
Pt  4.905  2.943  4.905
Pt  2.943  4.905  4.905
Pt  2.943  2.943  6.867
Pt  4.905  4.905  6.867
Pt  4.905  2.943  8.829
Pt  2.943  4.905  8.829
Pt  2.943  2.943  10.791
Pt  4.905  4.905  10.791
Pt  4.905  2.943  12.753
Pt  2.943  4.905  12.753
Pt  2.943  2.943  14.715
Pt  4.905  4.905  14.715
Pt  4.905  2.943  16.677
Pt  2.943  4.905  16.677
Pt  2.943  2.943  18.639
Pt  4.905  4.905  18.639
Pt  4.905  2.943  20.601
Pt  2.943  4.905  20.601
Pt  2.943  2.943  22.563
Pt  4.905  4.905  22.563
Pt  4.905  2.943  24.525
Pt  2.943  4.905  24.525
Pt  2.943  2.943  26.487
Pt  4.905  4.905  26.487
Pt  4.905  2.943  28.449
Pt  2.943  4.905  28.449
Pt  2.943  6.867  -28.449
Pt  4.905  6.867  -26.487
Pt  2.943  8.829  -26.487
Pt  2.943  6.867  -24.525
Pt  4.905  8.829  -24.525
Pt  4.905  6.867  -22.563
Pt  2.943  8.829  -22.563
Pt  2.943  6.867  -20.601
Pt  4.905  8.829  -20.601
Pt  4.905  6.867  -18.639
Pt  2.943  8.829  -18.639
Pt  2.943  6.867  -16.677
Pt  4.905  8.829  -16.677
Pt  4.905  6.867  -14.715
Pt  2.943  8.829  -14.715
Pt  2.943  6.867  -12.753
Pt  4.905  8.829  -12.753
Pt  4.905  6.867  -10.791
Pt  2.943  8.829  -10.791
Pt  2.943  6.867  -8.829
Pt  4.905  8.829  -8.829
Pt  4.905  6.867  -6.867
Pt  2.943  8.829  -6.867
Pt  2.943  6.867  -4.905
Pt  4.905  8.829  -4.905
Pt  4.905  6.867  -2.943
Pt  2.943  8.829  -2.943
Pt  2.943  6.867  -0.981
Pt  4.905  8.829  -0.981
Pt  4.905  6.867  0.981
Pt  2.943  8.829  0.981
Pt  2.943  6.867  2.943
Pt  4.905  8.829  2.943
Pt  4.905  6.867  4.905
Pt  2.943  8.829  4.905
Pt  2.943  6.867  6.867
Pt  4.905  8.829  6.867
Pt  4.905  6.867  8.829
Pt  2.943  8.829  8.829
Pt  2.943  6.867  10.791
Pt  4.905  8.829  10.791
Pt  4.905  6.867  12.753
Pt  2.943  8.829  12.753
Pt  2.943  6.867  14.715
Pt  4.905  8.829  14.715
Pt  4.905  6.867  16.677
Pt  2.943  8.829  16.677
Pt  2.943  6.867  18.639
Pt  4.905  8.829  18.639
Pt  4.905  6.867  20.601
Pt  2.943  8.829  20.601
Pt  2.943  6.867  22.563
Pt  4.905  8.829  22.563
Pt  4.905  6.867  24.525
Pt  2.943  8.829  24.525
Pt  2.943  6.867  26.487
Pt  4.905  8.829  26.487
Pt  4.905  6.867  28.449
Pt  2.943  10.791  -24.525
Pt  4.905  10.791  -22.563
Pt  2.943  12.753  -22.563
Pt  2.943  10.791  -20.601
Pt  4.905  12.753  -20.601
Pt  4.905  10.791  -18.639
Pt  2.943  12.753  -18.639
Pt  2.943  10.791  -16.677
Pt  4.905  12.753  -16.677
Pt  4.905  10.791  -14.715
Pt  2.943  12.753  -14.715
Pt  2.943  10.791  -12.753
Pt  4.905  12.753  -12.753
Pt  4.905  10.791  -10.791
Pt  2.943  12.753  -10.791
Pt  2.943  10.791  -8.829
Pt  4.905  12.753  -8.829
Pt  4.905  10.791  -6.867
Pt  2.943  12.753  -6.867
Pt  2.943  10.791  -4.905
Pt  4.905  12.753  -4.905
Pt  4.905  10.791  -2.943
Pt  2.943  12.753  -2.943
Pt  2.943  10.791  -0.981
Pt  4.905  12.753  -0.981
Pt  4.905  10.791  0.981
Pt  2.943  12.753  0.981
Pt  2.943  10.791  2.943
Pt  4.905  12.753  2.943
Pt  4.905  10.791  4.905
Pt  2.943  12.753  4.905
Pt  2.943  10.791  6.867
Pt  4.905  12.753  6.867
Pt  4.905  10.791  8.829
Pt  2.943  12.753  8.829
Pt  2.943  10.791  10.791
Pt  4.905  12.753  10.791
Pt  4.905  10.791  12.753
Pt  2.943  12.753  12.753
Pt  2.943  10.791  14.715
Pt  4.905  12.753  14.715
Pt  4.905  10.791  16.677
Pt  2.943  12.753  16.677
Pt  2.943  10.791  18.639
Pt  4.905  12.753  18.639
Pt  4.905  10.791  20.601
Pt  2.943  12.753  20.601
Pt  2.943  10.791  22.563
Pt  4.905  12.753  22.563
Pt  4.905  10.791  24.525
Pt  2.943  14.715  -20.601
Pt  4.905  14.715  -18.639
Pt  2.943  16.677  -18.639
Pt  2.943  14.715  -16.677
Pt  4.905  16.677  -16.677
Pt  4.905  14.715  -14.715
Pt  2.943  16.677  -14.715
Pt  2.943  14.715  -12.753
Pt  4.905  16.677  -12.753
Pt  4.905  14.715  -10.791
Pt  2.943  16.677  -10.791
Pt  2.943  14.715  -8.829
Pt  4.905  16.677  -8.829
Pt  4.905  14.715  -6.867
Pt  2.943  16.677  -6.867
Pt  2.943  14.715  -4.905
Pt  4.905  16.677  -4.905
Pt  4.905  14.715  -2.943
Pt  2.943  16.677  -2.943
Pt  2.943  14.715  -0.981
Pt  4.905  16.677  -0.981
Pt  4.905  14.715  0.981
Pt  2.943  16.677  0.981
Pt  2.943  14.715  2.943
Pt  4.905  16.677  2.943
Pt  4.905  14.715  4.905
Pt  2.943  16.677  4.905
Pt  2.943  14.715  6.867
Pt  4.905  16.677  6.867
Pt  4.905  14.715  8.829
Pt  2.943  16.677  8.829
Pt  2.943  14.715  10.791
Pt  4.905  16.677  10.791
Pt  4.905  14.715  12.753
Pt  2.943  16.677  12.753
Pt  2.943  14.715  14.715
Pt  4.905  16.677  14.715
Pt  4.905  14.715  16.677
Pt  2.943  16.677  16.677
Pt  2.943  14.715  18.639
Pt  4.905  16.677  18.639
Pt  4.905  14.715  20.601
Pt  2.943  18.639  -16.677
Pt  4.905  18.639  -14.715
Pt  2.943  20.601  -14.715
Pt  2.943  18.639  -12.753
Pt  4.905  20.601  -12.753
Pt  4.905  18.639  -10.791
Pt  2.943  20.601  -10.791
Pt  2.943  18.639  -8.829
Pt  4.905  20.601  -8.829
Pt  4.905  18.639  -6.867
Pt  2.943  20.601  -6.867
Pt  2.943  18.639  -4.905
Pt  4.905  20.601  -4.905
Pt  4.905  18.639  -2.943
Pt  2.943  20.601  -2.943
Pt  2.943  18.639  -0.981
Pt  4.905  20.601  -0.981
Pt  4.905  18.639  0.981
Pt  2.943  20.601  0.981
Pt  2.943  18.639  2.943
Pt  4.905  20.601  2.943
Pt  4.905  18.639  4.905
Pt  2.943  20.601  4.905
Pt  2.943  18.639  6.867
Pt  4.905  20.601  6.867
Pt  4.905  18.639  8.829
Pt  2.943  20.601  8.829
Pt  2.943  18.639  10.791
Pt  4.905  20.601  10.791
Pt  4.905  18.639  12.753
Pt  2.943  20.601  12.753
Pt  2.943  18.639  14.715
Pt  4.905  20.601  14.715
Pt  4.905  18.639  16.677
Pt  2.943  22.563  -12.753
Pt  4.905  22.563  -10.791
Pt  2.943  24.525  -10.791
Pt  2.943  22.563  -8.829
Pt  4.905  24.525  -8.829
Pt  4.905  22.563  -6.867
Pt  2.943  24.525  -6.867
Pt  2.943  22.563  -4.905
Pt  4.905  24.525  -4.905
Pt  4.905  22.563  -2.943
Pt  2.943  24.525  -2.943
Pt  2.943  22.563  -0.981
Pt  4.905  24.525  -0.981
Pt  4.905  22.563  0.981
Pt  2.943  24.525  0.981
Pt  2.943  22.563  2.943
Pt  4.905  24.525  2.943
Pt  4.905  22.563  4.905
Pt  2.943  24.525  4.905
Pt  2.943  22.563  6.867
Pt  4.905  24.525  6.867
Pt  4.905  22.563  8.829
Pt  2.943  24.525  8.829
Pt  2.943  22.563  10.791
Pt  4.905  24.525  10.791
Pt  4.905  22.563  12.753
Pt  2.943  26.487  -8.829
Pt  4.905  26.487  -6.867
Pt  2.943  28.449  -6.867
Pt  2.943  26.487  -4.905
Pt  4.905  28.449  -4.905
Pt  4.905  26.487  -2.943
Pt  2.943  28.449  -2.943
Pt  2.943  26.487  -0.981
Pt  4.905  28.449  -0.981
Pt  4.905  26.487  0.981
Pt  2.943  28.449  0.981
Pt  2.943  26.487  2.943
Pt  4.905  28.449  2.943
Pt  4.905  26.487  4.905
Pt  2.943  28.449  4.905
Pt  2.943  26.487  6.867
Pt  4.905  28.449  6.867
Pt  4.905  26.487  8.829
Pt  8.829  -26.487  -8.829
Pt  6.867  -26.487  -6.867
Pt  6.867  -28.449  -4.905
Pt  8.829  -26.487  -4.905
Pt  6.867  -26.487  -2.943
Pt  6.867  -28.449  -0.981
Pt  8.829  -26.487  -0.981
Pt  6.867  -26.487  0.981
Pt  6.867  -28.449  2.943
Pt  8.829  -26.487  2.943
Pt  6.867  -26.487  4.905
Pt  6.867  -28.449  6.867
Pt  8.829  -26.487  6.867
Pt  6.867  -26.487  8.829
Pt  8.829  -22.563  -12.753
Pt  8.829  -24.525  -10.791
Pt  6.867  -22.563  -10.791
Pt  6.867  -24.525  -8.829
Pt  8.829  -22.563  -8.829
Pt  8.829  -24.525  -6.867
Pt  6.867  -22.563  -6.867
Pt  6.867  -24.525  -4.905
Pt  8.829  -22.563  -4.905
Pt  8.829  -24.525  -2.943
Pt  6.867  -22.563  -2.943
Pt  6.867  -24.525  -0.981
Pt  8.829  -22.563  -0.981
Pt  8.829  -24.525  0.981
Pt  6.867  -22.563  0.981
Pt  6.867  -24.525  2.943
Pt  8.829  -22.563  2.943
Pt  8.829  -24.525  4.905
Pt  6.867  -22.563  4.905
Pt  6.867  -24.525  6.867
Pt  8.829  -22.563  6.867
Pt  8.829  -24.525  8.829
Pt  6.867  -22.563  8.829
Pt  6.867  -24.525  10.791
Pt  8.829  -22.563  10.791
Pt  6.867  -22.563  12.753
Pt  8.829  -18.639  -16.677
Pt  8.829  -20.601  -14.715
Pt  6.867  -18.639  -14.715
Pt  6.867  -20.601  -12.753
Pt  8.829  -18.639  -12.753
Pt  8.829  -20.601  -10.791
Pt  6.867  -18.639  -10.791
Pt  6.867  -20.601  -8.829
Pt  8.829  -18.639  -8.829
Pt  8.829  -20.601  -6.867
Pt  6.867  -18.639  -6.867
Pt  6.867  -20.601  -4.905
Pt  8.829  -18.639  -4.905
Pt  8.829  -20.601  -2.943
Pt  6.867  -18.639  -2.943
Pt  6.867  -20.601  -0.981
Pt  8.829  -18.639  -0.981
Pt  8.829  -20.601  0.981
Pt  6.867  -18.639  0.981
Pt  6.867  -20.601  2.943
Pt  8.829  -18.639  2.943
Pt  8.829  -20.601  4.905
Pt  6.867  -18.639  4.905
Pt  6.867  -20.601  6.867
Pt  8.829  -18.639  6.867
Pt  8.829  -20.601  8.829
Pt  6.867  -18.639  8.829
Pt  6.867  -20.601  10.791
Pt  8.829  -18.639  10.791
Pt  8.829  -20.601  12.753
Pt  6.867  -18.639  12.753
Pt  6.867  -20.601  14.715
Pt  8.829  -18.639  14.715
Pt  6.867  -18.639  16.677
Pt  8.829  -14.715  -20.601
Pt  8.829  -16.677  -18.639
Pt  6.867  -14.715  -18.639
Pt  6.867  -16.677  -16.677
Pt  8.829  -14.715  -16.677
Pt  8.829  -16.677  -14.715
Pt  6.867  -14.715  -14.715
Pt  6.867  -16.677  -12.753
Pt  8.829  -14.715  -12.753
Pt  8.829  -16.677  -10.791
Pt  6.867  -14.715  -10.791
Pt  6.867  -16.677  -8.829
Pt  8.829  -14.715  -8.829
Pt  8.829  -16.677  -6.867
Pt  6.867  -14.715  -6.867
Pt  6.867  -16.677  -4.905
Pt  8.829  -14.715  -4.905
Pt  8.829  -16.677  -2.943
Pt  6.867  -14.715  -2.943
Pt  6.867  -16.677  -0.981
Pt  8.829  -14.715  -0.981
Pt  8.829  -16.677  0.981
Pt  6.867  -14.715  0.981
Pt  6.867  -16.677  2.943
Pt  8.829  -14.715  2.943
Pt  8.829  -16.677  4.905
Pt  6.867  -14.715  4.905
Pt  6.867  -16.677  6.867
Pt  8.829  -14.715  6.867
Pt  8.829  -16.677  8.829
Pt  6.867  -14.715  8.829
Pt  6.867  -16.677  10.791
Pt  8.829  -14.715  10.791
Pt  8.829  -16.677  12.753
Pt  6.867  -14.715  12.753
Pt  6.867  -16.677  14.715
Pt  8.829  -14.715  14.715
Pt  8.829  -16.677  16.677
Pt  6.867  -14.715  16.677
Pt  6.867  -16.677  18.639
Pt  8.829  -14.715  18.639
Pt  6.867  -14.715  20.601
Pt  8.829  -10.791  -24.525
Pt  8.829  -12.753  -22.563
Pt  6.867  -10.791  -22.563
Pt  6.867  -12.753  -20.601
Pt  8.829  -10.791  -20.601
Pt  8.829  -12.753  -18.639
Pt  6.867  -10.791  -18.639
Pt  6.867  -12.753  -16.677
Pt  8.829  -10.791  -16.677
Pt  8.829  -12.753  -14.715
Pt  6.867  -10.791  -14.715
Pt  6.867  -12.753  -12.753
Pt  8.829  -10.791  -12.753
Pt  8.829  -12.753  -10.791
Pt  6.867  -10.791  -10.791
Pt  6.867  -12.753  -8.829
Pt  8.829  -10.791  -8.829
Pt  8.829  -12.753  -6.867
Pt  6.867  -10.791  -6.867
Pt  6.867  -12.753  -4.905
Pt  8.829  -10.791  -4.905
Pt  8.829  -12.753  -2.943
Pt  6.867  -10.791  -2.943
Pt  6.867  -12.753  -0.981
Pt  8.829  -10.791  -0.981
Pt  8.829  -12.753  0.981
Pt  6.867  -10.791  0.981
Pt  6.867  -12.753  2.943
Pt  8.829  -10.791  2.943
Pt  8.829  -12.753  4.905
Pt  6.867  -10.791  4.905
Pt  6.867  -12.753  6.867
Pt  8.829  -10.791  6.867
Pt  8.829  -12.753  8.829
Pt  6.867  -10.791  8.829
Pt  6.867  -12.753  10.791
Pt  8.829  -10.791  10.791
Pt  8.829  -12.753  12.753
Pt  6.867  -10.791  12.753
Pt  6.867  -12.753  14.715
Pt  8.829  -10.791  14.715
Pt  8.829  -12.753  16.677
Pt  6.867  -10.791  16.677
Pt  6.867  -12.753  18.639
Pt  8.829  -10.791  18.639
Pt  8.829  -12.753  20.601
Pt  6.867  -10.791  20.601
Pt  6.867  -12.753  22.563
Pt  8.829  -10.791  22.563
Pt  6.867  -10.791  24.525
Pt  8.829  -8.829  -26.487
Pt  6.867  -6.867  -26.487
Pt  6.867  -8.829  -24.525
Pt  8.829  -6.867  -24.525
Pt  8.829  -8.829  -22.563
Pt  6.867  -6.867  -22.563
Pt  6.867  -8.829  -20.601
Pt  8.829  -6.867  -20.601
Pt  8.829  -8.829  -18.639
Pt  6.867  -6.867  -18.639
Pt  6.867  -8.829  -16.677
Pt  8.829  -6.867  -16.677
Pt  8.829  -8.829  -14.715
Pt  6.867  -6.867  -14.715
Pt  6.867  -8.829  -12.753
Pt  8.829  -6.867  -12.753
Pt  8.829  -8.829  -10.791
Pt  6.867  -6.867  -10.791
Pt  6.867  -8.829  -8.829
Pt  8.829  -6.867  -8.829
Pt  8.829  -8.829  -6.867
Pt  6.867  -6.867  -6.867
Pt  6.867  -8.829  -4.905
Pt  8.829  -6.867  -4.905
Pt  8.829  -8.829  -2.943
Pt  6.867  -6.867  -2.943
Pt  6.867  -8.829  -0.981
Pt  8.829  -6.867  -0.981
Pt  8.829  -8.829  0.981
Pt  6.867  -6.867  0.981
Pt  6.867  -8.829  2.943
Pt  8.829  -6.867  2.943
Pt  8.829  -8.829  4.905
Pt  6.867  -6.867  4.905
Pt  6.867  -8.829  6.867
Pt  8.829  -6.867  6.867
Pt  8.829  -8.829  8.829
Pt  6.867  -6.867  8.829
Pt  6.867  -8.829  10.791
Pt  8.829  -6.867  10.791
Pt  8.829  -8.829  12.753
Pt  6.867  -6.867  12.753
Pt  6.867  -8.829  14.715
Pt  8.829  -6.867  14.715
Pt  8.829  -8.829  16.677
Pt  6.867  -6.867  16.677
Pt  6.867  -8.829  18.639
Pt  8.829  -6.867  18.639
Pt  8.829  -8.829  20.601
Pt  6.867  -6.867  20.601
Pt  6.867  -8.829  22.563
Pt  8.829  -6.867  22.563
Pt  8.829  -8.829  24.525
Pt  6.867  -6.867  24.525
Pt  6.867  -8.829  26.487
Pt  8.829  -6.867  26.487
Pt  6.867  -6.867  28.449
Pt  6.867  -4.905  -28.449
Pt  8.829  -4.905  -26.487
Pt  6.867  -2.943  -26.487
Pt  6.867  -4.905  -24.525
Pt  8.829  -2.943  -24.525
Pt  8.829  -4.905  -22.563
Pt  6.867  -2.943  -22.563
Pt  6.867  -4.905  -20.601
Pt  8.829  -2.943  -20.601
Pt  8.829  -4.905  -18.639
Pt  6.867  -2.943  -18.639
Pt  6.867  -4.905  -16.677
Pt  8.829  -2.943  -16.677
Pt  8.829  -4.905  -14.715
Pt  6.867  -2.943  -14.715
Pt  6.867  -4.905  -12.753
Pt  8.829  -2.943  -12.753
Pt  8.829  -4.905  -10.791
Pt  6.867  -2.943  -10.791
Pt  6.867  -4.905  -8.829
Pt  8.829  -2.943  -8.829
Pt  8.829  -4.905  -6.867
Pt  6.867  -2.943  -6.867
Pt  6.867  -4.905  -4.905
Pt  8.829  -2.943  -4.905
Pt  8.829  -4.905  -2.943
Pt  6.867  -2.943  -2.943
Pt  6.867  -4.905  -0.981
Pt  8.829  -2.943  -0.981
Pt  8.829  -4.905  0.981
Pt  6.867  -2.943  0.981
Pt  6.867  -4.905  2.943
Pt  8.829  -2.943  2.943
Pt  8.829  -4.905  4.905
Pt  6.867  -2.943  4.905
Pt  6.867  -4.905  6.867
Pt  8.829  -2.943  6.867
Pt  8.829  -4.905  8.829
Pt  6.867  -2.943  8.829
Pt  6.867  -4.905  10.791
Pt  8.829  -2.943  10.791
Pt  8.829  -4.905  12.753
Pt  6.867  -2.943  12.753
Pt  6.867  -4.905  14.715
Pt  8.829  -2.943  14.715
Pt  8.829  -4.905  16.677
Pt  6.867  -2.943  16.677
Pt  6.867  -4.905  18.639
Pt  8.829  -2.943  18.639
Pt  8.829  -4.905  20.601
Pt  6.867  -2.943  20.601
Pt  6.867  -4.905  22.563
Pt  8.829  -2.943  22.563
Pt  8.829  -4.905  24.525
Pt  6.867  -2.943  24.525
Pt  6.867  -4.905  26.487
Pt  8.829  -2.943  26.487
Pt  6.867  -2.943  28.449
Pt  6.867  -0.981  -28.449
Pt  8.829  -0.981  -26.487
Pt  6.867  0.981  -26.487
Pt  6.867  -0.981  -24.525
Pt  8.829  0.981  -24.525
Pt  8.829  -0.981  -22.563
Pt  6.867  0.981  -22.563
Pt  6.867  -0.981  -20.601
Pt  8.829  0.981  -20.601
Pt  8.829  -0.981  -18.639
Pt  6.867  0.981  -18.639
Pt  6.867  -0.981  -16.677
Pt  8.829  0.981  -16.677
Pt  8.829  -0.981  -14.715
Pt  6.867  0.981  -14.715
Pt  6.867  -0.981  -12.753
Pt  8.829  0.981  -12.753
Pt  8.829  -0.981  -10.791
Pt  6.867  0.981  -10.791
Pt  6.867  -0.981  -8.829
Pt  8.829  0.981  -8.829
Pt  8.829  -0.981  -6.867
Pt  6.867  0.981  -6.867
Pt  6.867  -0.981  -4.905
Pt  8.829  0.981  -4.905
Pt  8.829  -0.981  -2.943
Pt  6.867  0.981  -2.943
Pt  6.867  -0.981  -0.981
Pt  8.829  0.981  -0.981
Pt  8.829  -0.981  0.981
Pt  6.867  0.981  0.981
Pt  6.867  -0.981  2.943
Pt  8.829  0.981  2.943
Pt  8.829  -0.981  4.905
Pt  6.867  0.981  4.905
Pt  6.867  -0.981  6.867
Pt  8.829  0.981  6.867
Pt  8.829  -0.981  8.829
Pt  6.867  0.981  8.829
Pt  6.867  -0.981  10.791
Pt  8.829  0.981  10.791
Pt  8.829  -0.981  12.753
Pt  6.867  0.981  12.753
Pt  6.867  -0.981  14.715
Pt  8.829  0.981  14.715
Pt  8.829  -0.981  16.677
Pt  6.867  0.981  16.677
Pt  6.867  -0.981  18.639
Pt  8.829  0.981  18.639
Pt  8.829  -0.981  20.601
Pt  6.867  0.981  20.601
Pt  6.867  -0.981  22.563
Pt  8.829  0.981  22.563
Pt  8.829  -0.981  24.525
Pt  6.867  0.981  24.525
Pt  6.867  -0.981  26.487
Pt  8.829  0.981  26.487
Pt  6.867  0.981  28.449
Pt  6.867  2.943  -28.449
Pt  8.829  2.943  -26.487
Pt  6.867  4.905  -26.487
Pt  6.867  2.943  -24.525
Pt  8.829  4.905  -24.525
Pt  8.829  2.943  -22.563
Pt  6.867  4.905  -22.563
Pt  6.867  2.943  -20.601
Pt  8.829  4.905  -20.601
Pt  8.829  2.943  -18.639
Pt  6.867  4.905  -18.639
Pt  6.867  2.943  -16.677
Pt  8.829  4.905  -16.677
Pt  8.829  2.943  -14.715
Pt  6.867  4.905  -14.715
Pt  6.867  2.943  -12.753
Pt  8.829  4.905  -12.753
Pt  8.829  2.943  -10.791
Pt  6.867  4.905  -10.791
Pt  6.867  2.943  -8.829
Pt  8.829  4.905  -8.829
Pt  8.829  2.943  -6.867
Pt  6.867  4.905  -6.867
Pt  6.867  2.943  -4.905
Pt  8.829  4.905  -4.905
Pt  8.829  2.943  -2.943
Pt  6.867  4.905  -2.943
Pt  6.867  2.943  -0.981
Pt  8.829  4.905  -0.981
Pt  8.829  2.943  0.981
Pt  6.867  4.905  0.981
Pt  6.867  2.943  2.943
Pt  8.829  4.905  2.943
Pt  8.829  2.943  4.905
Pt  6.867  4.905  4.905
Pt  6.867  2.943  6.867
Pt  8.829  4.905  6.867
Pt  8.829  2.943  8.829
Pt  6.867  4.905  8.829
Pt  6.867  2.943  10.791
Pt  8.829  4.905  10.791
Pt  8.829  2.943  12.753
Pt  6.867  4.905  12.753
Pt  6.867  2.943  14.715
Pt  8.829  4.905  14.715
Pt  8.829  2.943  16.677
Pt  6.867  4.905  16.677
Pt  6.867  2.943  18.639
Pt  8.829  4.905  18.639
Pt  8.829  2.943  20.601
Pt  6.867  4.905  20.601
Pt  6.867  2.943  22.563
Pt  8.829  4.905  22.563
Pt  8.829  2.943  24.525
Pt  6.867  4.905  24.525
Pt  6.867  2.943  26.487
Pt  8.829  4.905  26.487
Pt  6.867  4.905  28.449
Pt  6.867  6.867  -28.449
Pt  8.829  6.867  -26.487
Pt  6.867  8.829  -26.487
Pt  6.867  6.867  -24.525
Pt  8.829  8.829  -24.525
Pt  8.829  6.867  -22.563
Pt  6.867  8.829  -22.563
Pt  6.867  6.867  -20.601
Pt  8.829  8.829  -20.601
Pt  8.829  6.867  -18.639
Pt  6.867  8.829  -18.639
Pt  6.867  6.867  -16.677
Pt  8.829  8.829  -16.677
Pt  8.829  6.867  -14.715
Pt  6.867  8.829  -14.715
Pt  6.867  6.867  -12.753
Pt  8.829  8.829  -12.753
Pt  8.829  6.867  -10.791
Pt  6.867  8.829  -10.791
Pt  6.867  6.867  -8.829
Pt  8.829  8.829  -8.829
Pt  8.829  6.867  -6.867
Pt  6.867  8.829  -6.867
Pt  6.867  6.867  -4.905
Pt  8.829  8.829  -4.905
Pt  8.829  6.867  -2.943
Pt  6.867  8.829  -2.943
Pt  6.867  6.867  -0.981
Pt  8.829  8.829  -0.981
Pt  8.829  6.867  0.981
Pt  6.867  8.829  0.981
Pt  6.867  6.867  2.943
Pt  8.829  8.829  2.943
Pt  8.829  6.867  4.905
Pt  6.867  8.829  4.905
Pt  6.867  6.867  6.867
Pt  8.829  8.829  6.867
Pt  8.829  6.867  8.829
Pt  6.867  8.829  8.829
Pt  6.867  6.867  10.791
Pt  8.829  8.829  10.791
Pt  8.829  6.867  12.753
Pt  6.867  8.829  12.753
Pt  6.867  6.867  14.715
Pt  8.829  8.829  14.715
Pt  8.829  6.867  16.677
Pt  6.867  8.829  16.677
Pt  6.867  6.867  18.639
Pt  8.829  8.829  18.639
Pt  8.829  6.867  20.601
Pt  6.867  8.829  20.601
Pt  6.867  6.867  22.563
Pt  8.829  8.829  22.563
Pt  8.829  6.867  24.525
Pt  6.867  8.829  24.525
Pt  6.867  6.867  26.487
Pt  8.829  8.829  26.487
Pt  6.867  10.791  -24.525
Pt  8.829  10.791  -22.563
Pt  6.867  12.753  -22.563
Pt  6.867  10.791  -20.601
Pt  8.829  12.753  -20.601
Pt  8.829  10.791  -18.639
Pt  6.867  12.753  -18.639
Pt  6.867  10.791  -16.677
Pt  8.829  12.753  -16.677
Pt  8.829  10.791  -14.715
Pt  6.867  12.753  -14.715
Pt  6.867  10.791  -12.753
Pt  8.829  12.753  -12.753
Pt  8.829  10.791  -10.791
Pt  6.867  12.753  -10.791
Pt  6.867  10.791  -8.829
Pt  8.829  12.753  -8.829
Pt  8.829  10.791  -6.867
Pt  6.867  12.753  -6.867
Pt  6.867  10.791  -4.905
Pt  8.829  12.753  -4.905
Pt  8.829  10.791  -2.943
Pt  6.867  12.753  -2.943
Pt  6.867  10.791  -0.981
Pt  8.829  12.753  -0.981
Pt  8.829  10.791  0.981
Pt  6.867  12.753  0.981
Pt  6.867  10.791  2.943
Pt  8.829  12.753  2.943
Pt  8.829  10.791  4.905
Pt  6.867  12.753  4.905
Pt  6.867  10.791  6.867
Pt  8.829  12.753  6.867
Pt  8.829  10.791  8.829
Pt  6.867  12.753  8.829
Pt  6.867  10.791  10.791
Pt  8.829  12.753  10.791
Pt  8.829  10.791  12.753
Pt  6.867  12.753  12.753
Pt  6.867  10.791  14.715
Pt  8.829  12.753  14.715
Pt  8.829  10.791  16.677
Pt  6.867  12.753  16.677
Pt  6.867  10.791  18.639
Pt  8.829  12.753  18.639
Pt  8.829  10.791  20.601
Pt  6.867  12.753  20.601
Pt  6.867  10.791  22.563
Pt  8.829  12.753  22.563
Pt  8.829  10.791  24.525
Pt  6.867  14.715  -20.601
Pt  8.829  14.715  -18.639
Pt  6.867  16.677  -18.639
Pt  6.867  14.715  -16.677
Pt  8.829  16.677  -16.677
Pt  8.829  14.715  -14.715
Pt  6.867  16.677  -14.715
Pt  6.867  14.715  -12.753
Pt  8.829  16.677  -12.753
Pt  8.829  14.715  -10.791
Pt  6.867  16.677  -10.791
Pt  6.867  14.715  -8.829
Pt  8.829  16.677  -8.829
Pt  8.829  14.715  -6.867
Pt  6.867  16.677  -6.867
Pt  6.867  14.715  -4.905
Pt  8.829  16.677  -4.905
Pt  8.829  14.715  -2.943
Pt  6.867  16.677  -2.943
Pt  6.867  14.715  -0.981
Pt  8.829  16.677  -0.981
Pt  8.829  14.715  0.981
Pt  6.867  16.677  0.981
Pt  6.867  14.715  2.943
Pt  8.829  16.677  2.943
Pt  8.829  14.715  4.905
Pt  6.867  16.677  4.905
Pt  6.867  14.715  6.867
Pt  8.829  16.677  6.867
Pt  8.829  14.715  8.829
Pt  6.867  16.677  8.829
Pt  6.867  14.715  10.791
Pt  8.829  16.677  10.791
Pt  8.829  14.715  12.753
Pt  6.867  16.677  12.753
Pt  6.867  14.715  14.715
Pt  8.829  16.677  14.715
Pt  8.829  14.715  16.677
Pt  6.867  16.677  16.677
Pt  6.867  14.715  18.639
Pt  8.829  16.677  18.639
Pt  8.829  14.715  20.601
Pt  6.867  18.639  -16.677
Pt  8.829  18.639  -14.715
Pt  6.867  20.601  -14.715
Pt  6.867  18.639  -12.753
Pt  8.829  20.601  -12.753
Pt  8.829  18.639  -10.791
Pt  6.867  20.601  -10.791
Pt  6.867  18.639  -8.829
Pt  8.829  20.601  -8.829
Pt  8.829  18.639  -6.867
Pt  6.867  20.601  -6.867
Pt  6.867  18.639  -4.905
Pt  8.829  20.601  -4.905
Pt  8.829  18.639  -2.943
Pt  6.867  20.601  -2.943
Pt  6.867  18.639  -0.981
Pt  8.829  20.601  -0.981
Pt  8.829  18.639  0.981
Pt  6.867  20.601  0.981
Pt  6.867  18.639  2.943
Pt  8.829  20.601  2.943
Pt  8.829  18.639  4.905
Pt  6.867  20.601  4.905
Pt  6.867  18.639  6.867
Pt  8.829  20.601  6.867
Pt  8.829  18.639  8.829
Pt  6.867  20.601  8.829
Pt  6.867  18.639  10.791
Pt  8.829  20.601  10.791
Pt  8.829  18.639  12.753
Pt  6.867  20.601  12.753
Pt  6.867  18.639  14.715
Pt  8.829  20.601  14.715
Pt  8.829  18.639  16.677
Pt  6.867  22.563  -12.753
Pt  8.829  22.563  -10.791
Pt  6.867  24.525  -10.791
Pt  6.867  22.563  -8.829
Pt  8.829  24.525  -8.829
Pt  8.829  22.563  -6.867
Pt  6.867  24.525  -6.867
Pt  6.867  22.563  -4.905
Pt  8.829  24.525  -4.905
Pt  8.829  22.563  -2.943
Pt  6.867  24.525  -2.943
Pt  6.867  22.563  -0.981
Pt  8.829  24.525  -0.981
Pt  8.829  22.563  0.981
Pt  6.867  24.525  0.981
Pt  6.867  22.563  2.943
Pt  8.829  24.525  2.943
Pt  8.829  22.563  4.905
Pt  6.867  24.525  4.905
Pt  6.867  22.563  6.867
Pt  8.829  24.525  6.867
Pt  8.829  22.563  8.829
Pt  6.867  24.525  8.829
Pt  6.867  22.563  10.791
Pt  8.829  24.525  10.791
Pt  8.829  22.563  12.753
Pt  6.867  26.487  -8.829
Pt  8.829  26.487  -6.867
Pt  6.867  28.449  -6.867
Pt  6.867  26.487  -4.905
Pt  8.829  26.487  -2.943
Pt  6.867  28.449  -2.943
Pt  6.867  26.487  -0.981
Pt  8.829  26.487  0.981
Pt  6.867  28.449  0.981
Pt  6.867  26.487  2.943
Pt  8.829  26.487  4.905
Pt  6.867  28.449  4.905
Pt  6.867  26.487  6.867
Pt  8.829  26.487  8.829
Pt  10.791  -22.563  -10.791
Pt  10.791  -24.525  -8.829
Pt  12.753  -22.563  -8.829
Pt  10.791  -22.563  -6.867
Pt  10.791  -24.525  -4.905
Pt  12.753  -22.563  -4.905
Pt  10.791  -22.563  -2.943
Pt  10.791  -24.525  -0.981
Pt  12.753  -22.563  -0.981
Pt  10.791  -22.563  0.981
Pt  10.791  -24.525  2.943
Pt  12.753  -22.563  2.943
Pt  10.791  -22.563  4.905
Pt  10.791  -24.525  6.867
Pt  12.753  -22.563  6.867
Pt  10.791  -22.563  8.829
Pt  10.791  -24.525  10.791
Pt  12.753  -22.563  10.791
Pt  10.791  -22.563  12.753
Pt  10.791  -18.639  -14.715
Pt  10.791  -20.601  -12.753
Pt  12.753  -18.639  -12.753
Pt  12.753  -20.601  -10.791
Pt  10.791  -18.639  -10.791
Pt  10.791  -20.601  -8.829
Pt  12.753  -18.639  -8.829
Pt  12.753  -20.601  -6.867
Pt  10.791  -18.639  -6.867
Pt  10.791  -20.601  -4.905
Pt  12.753  -18.639  -4.905
Pt  12.753  -20.601  -2.943
Pt  10.791  -18.639  -2.943
Pt  10.791  -20.601  -0.981
Pt  12.753  -18.639  -0.981
Pt  12.753  -20.601  0.981
Pt  10.791  -18.639  0.981
Pt  10.791  -20.601  2.943
Pt  12.753  -18.639  2.943
Pt  12.753  -20.601  4.905
Pt  10.791  -18.639  4.905
Pt  10.791  -20.601  6.867
Pt  12.753  -18.639  6.867
Pt  12.753  -20.601  8.829
Pt  10.791  -18.639  8.829
Pt  10.791  -20.601  10.791
Pt  12.753  -18.639  10.791
Pt  12.753  -20.601  12.753
Pt  10.791  -18.639  12.753
Pt  10.791  -20.601  14.715
Pt  12.753  -18.639  14.715
Pt  10.791  -18.639  16.677
Pt  10.791  -14.715  -18.639
Pt  10.791  -16.677  -16.677
Pt  12.753  -14.715  -16.677
Pt  12.753  -16.677  -14.715
Pt  10.791  -14.715  -14.715
Pt  10.791  -16.677  -12.753
Pt  12.753  -14.715  -12.753
Pt  12.753  -16.677  -10.791
Pt  10.791  -14.715  -10.791
Pt  10.791  -16.677  -8.829
Pt  12.753  -14.715  -8.829
Pt  12.753  -16.677  -6.867
Pt  10.791  -14.715  -6.867
Pt  10.791  -16.677  -4.905
Pt  12.753  -14.715  -4.905
Pt  12.753  -16.677  -2.943
Pt  10.791  -14.715  -2.943
Pt  10.791  -16.677  -0.981
Pt  12.753  -14.715  -0.981
Pt  12.753  -16.677  0.981
Pt  10.791  -14.715  0.981
Pt  10.791  -16.677  2.943
Pt  12.753  -14.715  2.943
Pt  12.753  -16.677  4.905
Pt  10.791  -14.715  4.905
Pt  10.791  -16.677  6.867
Pt  12.753  -14.715  6.867
Pt  12.753  -16.677  8.829
Pt  10.791  -14.715  8.829
Pt  10.791  -16.677  10.791
Pt  12.753  -14.715  10.791
Pt  12.753  -16.677  12.753
Pt  10.791  -14.715  12.753
Pt  10.791  -16.677  14.715
Pt  12.753  -14.715  14.715
Pt  12.753  -16.677  16.677
Pt  10.791  -14.715  16.677
Pt  10.791  -16.677  18.639
Pt  12.753  -14.715  18.639
Pt  10.791  -14.715  20.601
Pt  10.791  -10.791  -22.563
Pt  10.791  -12.753  -20.601
Pt  12.753  -10.791  -20.601
Pt  12.753  -12.753  -18.639
Pt  10.791  -10.791  -18.639
Pt  10.791  -12.753  -16.677
Pt  12.753  -10.791  -16.677
Pt  12.753  -12.753  -14.715
Pt  10.791  -10.791  -14.715
Pt  10.791  -12.753  -12.753
Pt  12.753  -10.791  -12.753
Pt  12.753  -12.753  -10.791
Pt  10.791  -10.791  -10.791
Pt  10.791  -12.753  -8.829
Pt  12.753  -10.791  -8.829
Pt  12.753  -12.753  -6.867
Pt  10.791  -10.791  -6.867
Pt  10.791  -12.753  -4.905
Pt  12.753  -10.791  -4.905
Pt  12.753  -12.753  -2.943
Pt  10.791  -10.791  -2.943
Pt  10.791  -12.753  -0.981
Pt  12.753  -10.791  -0.981
Pt  12.753  -12.753  0.981
Pt  10.791  -10.791  0.981
Pt  10.791  -12.753  2.943
Pt  12.753  -10.791  2.943
Pt  12.753  -12.753  4.905
Pt  10.791  -10.791  4.905
Pt  10.791  -12.753  6.867
Pt  12.753  -10.791  6.867
Pt  12.753  -12.753  8.829
Pt  10.791  -10.791  8.829
Pt  10.791  -12.753  10.791
Pt  12.753  -10.791  10.791
Pt  12.753  -12.753  12.753
Pt  10.791  -10.791  12.753
Pt  10.791  -12.753  14.715
Pt  12.753  -10.791  14.715
Pt  12.753  -12.753  16.677
Pt  10.791  -10.791  16.677
Pt  10.791  -12.753  18.639
Pt  12.753  -10.791  18.639
Pt  12.753  -12.753  20.601
Pt  10.791  -10.791  20.601
Pt  10.791  -12.753  22.563
Pt  12.753  -10.791  22.563
Pt  10.791  -10.791  24.525
Pt  10.791  -8.829  -24.525
Pt  12.753  -8.829  -22.563
Pt  10.791  -6.867  -22.563
Pt  10.791  -8.829  -20.601
Pt  12.753  -6.867  -20.601
Pt  12.753  -8.829  -18.639
Pt  10.791  -6.867  -18.639
Pt  10.791  -8.829  -16.677
Pt  12.753  -6.867  -16.677
Pt  12.753  -8.829  -14.715
Pt  10.791  -6.867  -14.715
Pt  10.791  -8.829  -12.753
Pt  12.753  -6.867  -12.753
Pt  12.753  -8.829  -10.791
Pt  10.791  -6.867  -10.791
Pt  10.791  -8.829  -8.829
Pt  12.753  -6.867  -8.829
Pt  12.753  -8.829  -6.867
Pt  10.791  -6.867  -6.867
Pt  10.791  -8.829  -4.905
Pt  12.753  -6.867  -4.905
Pt  12.753  -8.829  -2.943
Pt  10.791  -6.867  -2.943
Pt  10.791  -8.829  -0.981
Pt  12.753  -6.867  -0.981
Pt  12.753  -8.829  0.981
Pt  10.791  -6.867  0.981
Pt  10.791  -8.829  2.943
Pt  12.753  -6.867  2.943
Pt  12.753  -8.829  4.905
Pt  10.791  -6.867  4.905
Pt  10.791  -8.829  6.867
Pt  12.753  -6.867  6.867
Pt  12.753  -8.829  8.829
Pt  10.791  -6.867  8.829
Pt  10.791  -8.829  10.791
Pt  12.753  -6.867  10.791
Pt  12.753  -8.829  12.753
Pt  10.791  -6.867  12.753
Pt  10.791  -8.829  14.715
Pt  12.753  -6.867  14.715
Pt  12.753  -8.829  16.677
Pt  10.791  -6.867  16.677
Pt  10.791  -8.829  18.639
Pt  12.753  -6.867  18.639
Pt  12.753  -8.829  20.601
Pt  10.791  -6.867  20.601
Pt  10.791  -8.829  22.563
Pt  12.753  -6.867  22.563
Pt  10.791  -6.867  24.525
Pt  10.791  -4.905  -24.525
Pt  12.753  -4.905  -22.563
Pt  10.791  -2.943  -22.563
Pt  10.791  -4.905  -20.601
Pt  12.753  -2.943  -20.601
Pt  12.753  -4.905  -18.639
Pt  10.791  -2.943  -18.639
Pt  10.791  -4.905  -16.677
Pt  12.753  -2.943  -16.677
Pt  12.753  -4.905  -14.715
Pt  10.791  -2.943  -14.715
Pt  10.791  -4.905  -12.753
Pt  12.753  -2.943  -12.753
Pt  12.753  -4.905  -10.791
Pt  10.791  -2.943  -10.791
Pt  10.791  -4.905  -8.829
Pt  12.753  -2.943  -8.829
Pt  12.753  -4.905  -6.867
Pt  10.791  -2.943  -6.867
Pt  10.791  -4.905  -4.905
Pt  12.753  -2.943  -4.905
Pt  12.753  -4.905  -2.943
Pt  10.791  -2.943  -2.943
Pt  10.791  -4.905  -0.981
Pt  12.753  -2.943  -0.981
Pt  12.753  -4.905  0.981
Pt  10.791  -2.943  0.981
Pt  10.791  -4.905  2.943
Pt  12.753  -2.943  2.943
Pt  12.753  -4.905  4.905
Pt  10.791  -2.943  4.905
Pt  10.791  -4.905  6.867
Pt  12.753  -2.943  6.867
Pt  12.753  -4.905  8.829
Pt  10.791  -2.943  8.829
Pt  10.791  -4.905  10.791
Pt  12.753  -2.943  10.791
Pt  12.753  -4.905  12.753
Pt  10.791  -2.943  12.753
Pt  10.791  -4.905  14.715
Pt  12.753  -2.943  14.715
Pt  12.753  -4.905  16.677
Pt  10.791  -2.943  16.677
Pt  10.791  -4.905  18.639
Pt  12.753  -2.943  18.639
Pt  12.753  -4.905  20.601
Pt  10.791  -2.943  20.601
Pt  10.791  -4.905  22.563
Pt  12.753  -2.943  22.563
Pt  10.791  -2.943  24.525
Pt  10.791  -0.981  -24.525
Pt  12.753  -0.981  -22.563
Pt  10.791  0.981  -22.563
Pt  10.791  -0.981  -20.601
Pt  12.753  0.981  -20.601
Pt  12.753  -0.981  -18.639
Pt  10.791  0.981  -18.639
Pt  10.791  -0.981  -16.677
Pt  12.753  0.981  -16.677
Pt  12.753  -0.981  -14.715
Pt  10.791  0.981  -14.715
Pt  10.791  -0.981  -12.753
Pt  12.753  0.981  -12.753
Pt  12.753  -0.981  -10.791
Pt  10.791  0.981  -10.791
Pt  10.791  -0.981  -8.829
Pt  12.753  0.981  -8.829
Pt  12.753  -0.981  -6.867
Pt  10.791  0.981  -6.867
Pt  10.791  -0.981  -4.905
Pt  12.753  0.981  -4.905
Pt  12.753  -0.981  -2.943
Pt  10.791  0.981  -2.943
Pt  10.791  -0.981  -0.981
Pt  12.753  0.981  -0.981
Pt  12.753  -0.981  0.981
Pt  10.791  0.981  0.981
Pt  10.791  -0.981  2.943
Pt  12.753  0.981  2.943
Pt  12.753  -0.981  4.905
Pt  10.791  0.981  4.905
Pt  10.791  -0.981  6.867
Pt  12.753  0.981  6.867
Pt  12.753  -0.981  8.829
Pt  10.791  0.981  8.829
Pt  10.791  -0.981  10.791
Pt  12.753  0.981  10.791
Pt  12.753  -0.981  12.753
Pt  10.791  0.981  12.753
Pt  10.791  -0.981  14.715
Pt  12.753  0.981  14.715
Pt  12.753  -0.981  16.677
Pt  10.791  0.981  16.677
Pt  10.791  -0.981  18.639
Pt  12.753  0.981  18.639
Pt  12.753  -0.981  20.601
Pt  10.791  0.981  20.601
Pt  10.791  -0.981  22.563
Pt  12.753  0.981  22.563
Pt  10.791  0.981  24.525
Pt  10.791  2.943  -24.525
Pt  12.753  2.943  -22.563
Pt  10.791  4.905  -22.563
Pt  10.791  2.943  -20.601
Pt  12.753  4.905  -20.601
Pt  12.753  2.943  -18.639
Pt  10.791  4.905  -18.639
Pt  10.791  2.943  -16.677
Pt  12.753  4.905  -16.677
Pt  12.753  2.943  -14.715
Pt  10.791  4.905  -14.715
Pt  10.791  2.943  -12.753
Pt  12.753  4.905  -12.753
Pt  12.753  2.943  -10.791
Pt  10.791  4.905  -10.791
Pt  10.791  2.943  -8.829
Pt  12.753  4.905  -8.829
Pt  12.753  2.943  -6.867
Pt  10.791  4.905  -6.867
Pt  10.791  2.943  -4.905
Pt  12.753  4.905  -4.905
Pt  12.753  2.943  -2.943
Pt  10.791  4.905  -2.943
Pt  10.791  2.943  -0.981
Pt  12.753  4.905  -0.981
Pt  12.753  2.943  0.981
Pt  10.791  4.905  0.981
Pt  10.791  2.943  2.943
Pt  12.753  4.905  2.943
Pt  12.753  2.943  4.905
Pt  10.791  4.905  4.905
Pt  10.791  2.943  6.867
Pt  12.753  4.905  6.867
Pt  12.753  2.943  8.829
Pt  10.791  4.905  8.829
Pt  10.791  2.943  10.791
Pt  12.753  4.905  10.791
Pt  12.753  2.943  12.753
Pt  10.791  4.905  12.753
Pt  10.791  2.943  14.715
Pt  12.753  4.905  14.715
Pt  12.753  2.943  16.677
Pt  10.791  4.905  16.677
Pt  10.791  2.943  18.639
Pt  12.753  4.905  18.639
Pt  12.753  2.943  20.601
Pt  10.791  4.905  20.601
Pt  10.791  2.943  22.563
Pt  12.753  4.905  22.563
Pt  10.791  4.905  24.525
Pt  10.791  6.867  -24.525
Pt  12.753  6.867  -22.563
Pt  10.791  8.829  -22.563
Pt  10.791  6.867  -20.601
Pt  12.753  8.829  -20.601
Pt  12.753  6.867  -18.639
Pt  10.791  8.829  -18.639
Pt  10.791  6.867  -16.677
Pt  12.753  8.829  -16.677
Pt  12.753  6.867  -14.715
Pt  10.791  8.829  -14.715
Pt  10.791  6.867  -12.753
Pt  12.753  8.829  -12.753
Pt  12.753  6.867  -10.791
Pt  10.791  8.829  -10.791
Pt  10.791  6.867  -8.829
Pt  12.753  8.829  -8.829
Pt  12.753  6.867  -6.867
Pt  10.791  8.829  -6.867
Pt  10.791  6.867  -4.905
Pt  12.753  8.829  -4.905
Pt  12.753  6.867  -2.943
Pt  10.791  8.829  -2.943
Pt  10.791  6.867  -0.981
Pt  12.753  8.829  -0.981
Pt  12.753  6.867  0.981
Pt  10.791  8.829  0.981
Pt  10.791  6.867  2.943
Pt  12.753  8.829  2.943
Pt  12.753  6.867  4.905
Pt  10.791  8.829  4.905
Pt  10.791  6.867  6.867
Pt  12.753  8.829  6.867
Pt  12.753  6.867  8.829
Pt  10.791  8.829  8.829
Pt  10.791  6.867  10.791
Pt  12.753  8.829  10.791
Pt  12.753  6.867  12.753
Pt  10.791  8.829  12.753
Pt  10.791  6.867  14.715
Pt  12.753  8.829  14.715
Pt  12.753  6.867  16.677
Pt  10.791  8.829  16.677
Pt  10.791  6.867  18.639
Pt  12.753  8.829  18.639
Pt  12.753  6.867  20.601
Pt  10.791  8.829  20.601
Pt  10.791  6.867  22.563
Pt  12.753  8.829  22.563
Pt  10.791  8.829  24.525
Pt  10.791  10.791  -24.525
Pt  12.753  10.791  -22.563
Pt  10.791  12.753  -22.563
Pt  10.791  10.791  -20.601
Pt  12.753  12.753  -20.601
Pt  12.753  10.791  -18.639
Pt  10.791  12.753  -18.639
Pt  10.791  10.791  -16.677
Pt  12.753  12.753  -16.677
Pt  12.753  10.791  -14.715
Pt  10.791  12.753  -14.715
Pt  10.791  10.791  -12.753
Pt  12.753  12.753  -12.753
Pt  12.753  10.791  -10.791
Pt  10.791  12.753  -10.791
Pt  10.791  10.791  -8.829
Pt  12.753  12.753  -8.829
Pt  12.753  10.791  -6.867
Pt  10.791  12.753  -6.867
Pt  10.791  10.791  -4.905
Pt  12.753  12.753  -4.905
Pt  12.753  10.791  -2.943
Pt  10.791  12.753  -2.943
Pt  10.791  10.791  -0.981
Pt  12.753  12.753  -0.981
Pt  12.753  10.791  0.981
Pt  10.791  12.753  0.981
Pt  10.791  10.791  2.943
Pt  12.753  12.753  2.943
Pt  12.753  10.791  4.905
Pt  10.791  12.753  4.905
Pt  10.791  10.791  6.867
Pt  12.753  12.753  6.867
Pt  12.753  10.791  8.829
Pt  10.791  12.753  8.829
Pt  10.791  10.791  10.791
Pt  12.753  12.753  10.791
Pt  12.753  10.791  12.753
Pt  10.791  12.753  12.753
Pt  10.791  10.791  14.715
Pt  12.753  12.753  14.715
Pt  12.753  10.791  16.677
Pt  10.791  12.753  16.677
Pt  10.791  10.791  18.639
Pt  12.753  12.753  18.639
Pt  12.753  10.791  20.601
Pt  10.791  12.753  20.601
Pt  10.791  10.791  22.563
Pt  10.791  14.715  -20.601
Pt  12.753  14.715  -18.639
Pt  10.791  16.677  -18.639
Pt  10.791  14.715  -16.677
Pt  12.753  16.677  -16.677
Pt  12.753  14.715  -14.715
Pt  10.791  16.677  -14.715
Pt  10.791  14.715  -12.753
Pt  12.753  16.677  -12.753
Pt  12.753  14.715  -10.791
Pt  10.791  16.677  -10.791
Pt  10.791  14.715  -8.829
Pt  12.753  16.677  -8.829
Pt  12.753  14.715  -6.867
Pt  10.791  16.677  -6.867
Pt  10.791  14.715  -4.905
Pt  12.753  16.677  -4.905
Pt  12.753  14.715  -2.943
Pt  10.791  16.677  -2.943
Pt  10.791  14.715  -0.981
Pt  12.753  16.677  -0.981
Pt  12.753  14.715  0.981
Pt  10.791  16.677  0.981
Pt  10.791  14.715  2.943
Pt  12.753  16.677  2.943
Pt  12.753  14.715  4.905
Pt  10.791  16.677  4.905
Pt  10.791  14.715  6.867
Pt  12.753  16.677  6.867
Pt  12.753  14.715  8.829
Pt  10.791  16.677  8.829
Pt  10.791  14.715  10.791
Pt  12.753  16.677  10.791
Pt  12.753  14.715  12.753
Pt  10.791  16.677  12.753
Pt  10.791  14.715  14.715
Pt  12.753  16.677  14.715
Pt  12.753  14.715  16.677
Pt  10.791  16.677  16.677
Pt  10.791  14.715  18.639
Pt  10.791  18.639  -16.677
Pt  12.753  18.639  -14.715
Pt  10.791  20.601  -14.715
Pt  10.791  18.639  -12.753
Pt  12.753  20.601  -12.753
Pt  12.753  18.639  -10.791
Pt  10.791  20.601  -10.791
Pt  10.791  18.639  -8.829
Pt  12.753  20.601  -8.829
Pt  12.753  18.639  -6.867
Pt  10.791  20.601  -6.867
Pt  10.791  18.639  -4.905
Pt  12.753  20.601  -4.905
Pt  12.753  18.639  -2.943
Pt  10.791  20.601  -2.943
Pt  10.791  18.639  -0.981
Pt  12.753  20.601  -0.981
Pt  12.753  18.639  0.981
Pt  10.791  20.601  0.981
Pt  10.791  18.639  2.943
Pt  12.753  20.601  2.943
Pt  12.753  18.639  4.905
Pt  10.791  20.601  4.905
Pt  10.791  18.639  6.867
Pt  12.753  20.601  6.867
Pt  12.753  18.639  8.829
Pt  10.791  20.601  8.829
Pt  10.791  18.639  10.791
Pt  12.753  20.601  10.791
Pt  12.753  18.639  12.753
Pt  10.791  20.601  12.753
Pt  10.791  18.639  14.715
Pt  10.791  22.563  -12.753
Pt  12.753  22.563  -10.791
Pt  10.791  24.525  -10.791
Pt  10.791  22.563  -8.829
Pt  12.753  22.563  -6.867
Pt  10.791  24.525  -6.867
Pt  10.791  22.563  -4.905
Pt  12.753  22.563  -2.943
Pt  10.791  24.525  -2.943
Pt  10.791  22.563  -0.981
Pt  12.753  22.563  0.981
Pt  10.791  24.525  0.981
Pt  10.791  22.563  2.943
Pt  12.753  22.563  4.905
Pt  10.791  24.525  4.905
Pt  10.791  22.563  6.867
Pt  12.753  22.563  8.829
Pt  10.791  24.525  8.829
Pt  10.791  22.563  10.791
Pt  14.715  -18.639  -10.791
Pt  14.715  -20.601  -8.829
Pt  16.677  -18.639  -8.829
Pt  14.715  -18.639  -6.867
Pt  14.715  -20.601  -4.905
Pt  16.677  -18.639  -4.905
Pt  14.715  -18.639  -2.943
Pt  14.715  -20.601  -0.981
Pt  16.677  -18.639  -0.981
Pt  14.715  -18.639  0.981
Pt  14.715  -20.601  2.943
Pt  16.677  -18.639  2.943
Pt  14.715  -18.639  4.905
Pt  14.715  -20.601  6.867
Pt  16.677  -18.639  6.867
Pt  14.715  -18.639  8.829
Pt  14.715  -20.601  10.791
Pt  16.677  -18.639  10.791
Pt  14.715  -18.639  12.753
Pt  14.715  -14.715  -14.715
Pt  14.715  -16.677  -12.753
Pt  16.677  -14.715  -12.753
Pt  16.677  -16.677  -10.791
Pt  14.715  -14.715  -10.791
Pt  14.715  -16.677  -8.829
Pt  16.677  -14.715  -8.829
Pt  16.677  -16.677  -6.867
Pt  14.715  -14.715  -6.867
Pt  14.715  -16.677  -4.905
Pt  16.677  -14.715  -4.905
Pt  16.677  -16.677  -2.943
Pt  14.715  -14.715  -2.943
Pt  14.715  -16.677  -0.981
Pt  16.677  -14.715  -0.981
Pt  16.677  -16.677  0.981
Pt  14.715  -14.715  0.981
Pt  14.715  -16.677  2.943
Pt  16.677  -14.715  2.943
Pt  16.677  -16.677  4.905
Pt  14.715  -14.715  4.905
Pt  14.715  -16.677  6.867
Pt  16.677  -14.715  6.867
Pt  16.677  -16.677  8.829
Pt  14.715  -14.715  8.829
Pt  14.715  -16.677  10.791
Pt  16.677  -14.715  10.791
Pt  16.677  -16.677  12.753
Pt  14.715  -14.715  12.753
Pt  14.715  -16.677  14.715
Pt  16.677  -14.715  14.715
Pt  14.715  -14.715  16.677
Pt  14.715  -10.791  -18.639
Pt  14.715  -12.753  -16.677
Pt  16.677  -10.791  -16.677
Pt  16.677  -12.753  -14.715
Pt  14.715  -10.791  -14.715
Pt  14.715  -12.753  -12.753
Pt  16.677  -10.791  -12.753
Pt  16.677  -12.753  -10.791
Pt  14.715  -10.791  -10.791
Pt  14.715  -12.753  -8.829
Pt  16.677  -10.791  -8.829
Pt  16.677  -12.753  -6.867
Pt  14.715  -10.791  -6.867
Pt  14.715  -12.753  -4.905
Pt  16.677  -10.791  -4.905
Pt  16.677  -12.753  -2.943
Pt  14.715  -10.791  -2.943
Pt  14.715  -12.753  -0.981
Pt  16.677  -10.791  -0.981
Pt  16.677  -12.753  0.981
Pt  14.715  -10.791  0.981
Pt  14.715  -12.753  2.943
Pt  16.677  -10.791  2.943
Pt  16.677  -12.753  4.905
Pt  14.715  -10.791  4.905
Pt  14.715  -12.753  6.867
Pt  16.677  -10.791  6.867
Pt  16.677  -12.753  8.829
Pt  14.715  -10.791  8.829
Pt  14.715  -12.753  10.791
Pt  16.677  -10.791  10.791
Pt  16.677  -12.753  12.753
Pt  14.715  -10.791  12.753
Pt  14.715  -12.753  14.715
Pt  16.677  -10.791  14.715
Pt  16.677  -12.753  16.677
Pt  14.715  -10.791  16.677
Pt  14.715  -12.753  18.639
Pt  16.677  -10.791  18.639
Pt  14.715  -10.791  20.601
Pt  14.715  -8.829  -20.601
Pt  16.677  -8.829  -18.639
Pt  14.715  -6.867  -18.639
Pt  14.715  -8.829  -16.677
Pt  16.677  -6.867  -16.677
Pt  16.677  -8.829  -14.715
Pt  14.715  -6.867  -14.715
Pt  14.715  -8.829  -12.753
Pt  16.677  -6.867  -12.753
Pt  16.677  -8.829  -10.791
Pt  14.715  -6.867  -10.791
Pt  14.715  -8.829  -8.829
Pt  16.677  -6.867  -8.829
Pt  16.677  -8.829  -6.867
Pt  14.715  -6.867  -6.867
Pt  14.715  -8.829  -4.905
Pt  16.677  -6.867  -4.905
Pt  16.677  -8.829  -2.943
Pt  14.715  -6.867  -2.943
Pt  14.715  -8.829  -0.981
Pt  16.677  -6.867  -0.981
Pt  16.677  -8.829  0.981
Pt  14.715  -6.867  0.981
Pt  14.715  -8.829  2.943
Pt  16.677  -6.867  2.943
Pt  16.677  -8.829  4.905
Pt  14.715  -6.867  4.905
Pt  14.715  -8.829  6.867
Pt  16.677  -6.867  6.867
Pt  16.677  -8.829  8.829
Pt  14.715  -6.867  8.829
Pt  14.715  -8.829  10.791
Pt  16.677  -6.867  10.791
Pt  16.677  -8.829  12.753
Pt  14.715  -6.867  12.753
Pt  14.715  -8.829  14.715
Pt  16.677  -6.867  14.715
Pt  16.677  -8.829  16.677
Pt  14.715  -6.867  16.677
Pt  14.715  -8.829  18.639
Pt  16.677  -6.867  18.639
Pt  14.715  -6.867  20.601
Pt  14.715  -4.905  -20.601
Pt  16.677  -4.905  -18.639
Pt  14.715  -2.943  -18.639
Pt  14.715  -4.905  -16.677
Pt  16.677  -2.943  -16.677
Pt  16.677  -4.905  -14.715
Pt  14.715  -2.943  -14.715
Pt  14.715  -4.905  -12.753
Pt  16.677  -2.943  -12.753
Pt  16.677  -4.905  -10.791
Pt  14.715  -2.943  -10.791
Pt  14.715  -4.905  -8.829
Pt  16.677  -2.943  -8.829
Pt  16.677  -4.905  -6.867
Pt  14.715  -2.943  -6.867
Pt  14.715  -4.905  -4.905
Pt  16.677  -2.943  -4.905
Pt  16.677  -4.905  -2.943
Pt  14.715  -2.943  -2.943
Pt  14.715  -4.905  -0.981
Pt  16.677  -2.943  -0.981
Pt  16.677  -4.905  0.981
Pt  14.715  -2.943  0.981
Pt  14.715  -4.905  2.943
Pt  16.677  -2.943  2.943
Pt  16.677  -4.905  4.905
Pt  14.715  -2.943  4.905
Pt  14.715  -4.905  6.867
Pt  16.677  -2.943  6.867
Pt  16.677  -4.905  8.829
Pt  14.715  -2.943  8.829
Pt  14.715  -4.905  10.791
Pt  16.677  -2.943  10.791
Pt  16.677  -4.905  12.753
Pt  14.715  -2.943  12.753
Pt  14.715  -4.905  14.715
Pt  16.677  -2.943  14.715
Pt  16.677  -4.905  16.677
Pt  14.715  -2.943  16.677
Pt  14.715  -4.905  18.639
Pt  16.677  -2.943  18.639
Pt  14.715  -2.943  20.601
Pt  14.715  -0.981  -20.601
Pt  16.677  -0.981  -18.639
Pt  14.715  0.981  -18.639
Pt  14.715  -0.981  -16.677
Pt  16.677  0.981  -16.677
Pt  16.677  -0.981  -14.715
Pt  14.715  0.981  -14.715
Pt  14.715  -0.981  -12.753
Pt  16.677  0.981  -12.753
Pt  16.677  -0.981  -10.791
Pt  14.715  0.981  -10.791
Pt  14.715  -0.981  -8.829
Pt  16.677  0.981  -8.829
Pt  16.677  -0.981  -6.867
Pt  14.715  0.981  -6.867
Pt  14.715  -0.981  -4.905
Pt  16.677  0.981  -4.905
Pt  16.677  -0.981  -2.943
Pt  14.715  0.981  -2.943
Pt  14.715  -0.981  -0.981
Pt  16.677  0.981  -0.981
Pt  16.677  -0.981  0.981
Pt  14.715  0.981  0.981
Pt  14.715  -0.981  2.943
Pt  16.677  0.981  2.943
Pt  16.677  -0.981  4.905
Pt  14.715  0.981  4.905
Pt  14.715  -0.981  6.867
Pt  16.677  0.981  6.867
Pt  16.677  -0.981  8.829
Pt  14.715  0.981  8.829
Pt  14.715  -0.981  10.791
Pt  16.677  0.981  10.791
Pt  16.677  -0.981  12.753
Pt  14.715  0.981  12.753
Pt  14.715  -0.981  14.715
Pt  16.677  0.981  14.715
Pt  16.677  -0.981  16.677
Pt  14.715  0.981  16.677
Pt  14.715  -0.981  18.639
Pt  16.677  0.981  18.639
Pt  14.715  0.981  20.601
Pt  14.715  2.943  -20.601
Pt  16.677  2.943  -18.639
Pt  14.715  4.905  -18.639
Pt  14.715  2.943  -16.677
Pt  16.677  4.905  -16.677
Pt  16.677  2.943  -14.715
Pt  14.715  4.905  -14.715
Pt  14.715  2.943  -12.753
Pt  16.677  4.905  -12.753
Pt  16.677  2.943  -10.791
Pt  14.715  4.905  -10.791
Pt  14.715  2.943  -8.829
Pt  16.677  4.905  -8.829
Pt  16.677  2.943  -6.867
Pt  14.715  4.905  -6.867
Pt  14.715  2.943  -4.905
Pt  16.677  4.905  -4.905
Pt  16.677  2.943  -2.943
Pt  14.715  4.905  -2.943
Pt  14.715  2.943  -0.981
Pt  16.677  4.905  -0.981
Pt  16.677  2.943  0.981
Pt  14.715  4.905  0.981
Pt  14.715  2.943  2.943
Pt  16.677  4.905  2.943
Pt  16.677  2.943  4.905
Pt  14.715  4.905  4.905
Pt  14.715  2.943  6.867
Pt  16.677  4.905  6.867
Pt  16.677  2.943  8.829
Pt  14.715  4.905  8.829
Pt  14.715  2.943  10.791
Pt  16.677  4.905  10.791
Pt  16.677  2.943  12.753
Pt  14.715  4.905  12.753
Pt  14.715  2.943  14.715
Pt  16.677  4.905  14.715
Pt  16.677  2.943  16.677
Pt  14.715  4.905  16.677
Pt  14.715  2.943  18.639
Pt  16.677  4.905  18.639
Pt  14.715  4.905  20.601
Pt  14.715  6.867  -20.601
Pt  16.677  6.867  -18.639
Pt  14.715  8.829  -18.639
Pt  14.715  6.867  -16.677
Pt  16.677  8.829  -16.677
Pt  16.677  6.867  -14.715
Pt  14.715  8.829  -14.715
Pt  14.715  6.867  -12.753
Pt  16.677  8.829  -12.753
Pt  16.677  6.867  -10.791
Pt  14.715  8.829  -10.791
Pt  14.715  6.867  -8.829
Pt  16.677  8.829  -8.829
Pt  16.677  6.867  -6.867
Pt  14.715  8.829  -6.867
Pt  14.715  6.867  -4.905
Pt  16.677  8.829  -4.905
Pt  16.677  6.867  -2.943
Pt  14.715  8.829  -2.943
Pt  14.715  6.867  -0.981
Pt  16.677  8.829  -0.981
Pt  16.677  6.867  0.981
Pt  14.715  8.829  0.981
Pt  14.715  6.867  2.943
Pt  16.677  8.829  2.943
Pt  16.677  6.867  4.905
Pt  14.715  8.829  4.905
Pt  14.715  6.867  6.867
Pt  16.677  8.829  6.867
Pt  16.677  6.867  8.829
Pt  14.715  8.829  8.829
Pt  14.715  6.867  10.791
Pt  16.677  8.829  10.791
Pt  16.677  6.867  12.753
Pt  14.715  8.829  12.753
Pt  14.715  6.867  14.715
Pt  16.677  8.829  14.715
Pt  16.677  6.867  16.677
Pt  14.715  8.829  16.677
Pt  14.715  6.867  18.639
Pt  16.677  8.829  18.639
Pt  14.715  8.829  20.601
Pt  14.715  10.791  -20.601
Pt  16.677  10.791  -18.639
Pt  14.715  12.753  -18.639
Pt  14.715  10.791  -16.677
Pt  16.677  12.753  -16.677
Pt  16.677  10.791  -14.715
Pt  14.715  12.753  -14.715
Pt  14.715  10.791  -12.753
Pt  16.677  12.753  -12.753
Pt  16.677  10.791  -10.791
Pt  14.715  12.753  -10.791
Pt  14.715  10.791  -8.829
Pt  16.677  12.753  -8.829
Pt  16.677  10.791  -6.867
Pt  14.715  12.753  -6.867
Pt  14.715  10.791  -4.905
Pt  16.677  12.753  -4.905
Pt  16.677  10.791  -2.943
Pt  14.715  12.753  -2.943
Pt  14.715  10.791  -0.981
Pt  16.677  12.753  -0.981
Pt  16.677  10.791  0.981
Pt  14.715  12.753  0.981
Pt  14.715  10.791  2.943
Pt  16.677  12.753  2.943
Pt  16.677  10.791  4.905
Pt  14.715  12.753  4.905
Pt  14.715  10.791  6.867
Pt  16.677  12.753  6.867
Pt  16.677  10.791  8.829
Pt  14.715  12.753  8.829
Pt  14.715  10.791  10.791
Pt  16.677  12.753  10.791
Pt  16.677  10.791  12.753
Pt  14.715  12.753  12.753
Pt  14.715  10.791  14.715
Pt  16.677  12.753  14.715
Pt  16.677  10.791  16.677
Pt  14.715  12.753  16.677
Pt  14.715  10.791  18.639
Pt  14.715  14.715  -16.677
Pt  16.677  14.715  -14.715
Pt  14.715  16.677  -14.715
Pt  14.715  14.715  -12.753
Pt  16.677  16.677  -12.753
Pt  16.677  14.715  -10.791
Pt  14.715  16.677  -10.791
Pt  14.715  14.715  -8.829
Pt  16.677  16.677  -8.829
Pt  16.677  14.715  -6.867
Pt  14.715  16.677  -6.867
Pt  14.715  14.715  -4.905
Pt  16.677  16.677  -4.905
Pt  16.677  14.715  -2.943
Pt  14.715  16.677  -2.943
Pt  14.715  14.715  -0.981
Pt  16.677  16.677  -0.981
Pt  16.677  14.715  0.981
Pt  14.715  16.677  0.981
Pt  14.715  14.715  2.943
Pt  16.677  16.677  2.943
Pt  16.677  14.715  4.905
Pt  14.715  16.677  4.905
Pt  14.715  14.715  6.867
Pt  16.677  16.677  6.867
Pt  16.677  14.715  8.829
Pt  14.715  16.677  8.829
Pt  14.715  14.715  10.791
Pt  16.677  16.677  10.791
Pt  16.677  14.715  12.753
Pt  14.715  16.677  12.753
Pt  14.715  14.715  14.715
Pt  14.715  18.639  -12.753
Pt  16.677  18.639  -10.791
Pt  14.715  20.601  -10.791
Pt  14.715  18.639  -8.829
Pt  16.677  18.639  -6.867
Pt  14.715  20.601  -6.867
Pt  14.715  18.639  -4.905
Pt  16.677  18.639  -2.943
Pt  14.715  20.601  -2.943
Pt  14.715  18.639  -0.981
Pt  16.677  18.639  0.981
Pt  14.715  20.601  0.981
Pt  14.715  18.639  2.943
Pt  16.677  18.639  4.905
Pt  14.715  20.601  4.905
Pt  14.715  18.639  6.867
Pt  16.677  18.639  8.829
Pt  14.715  20.601  8.829
Pt  14.715  18.639  10.791
Pt  18.639  -14.715  -10.791
Pt  18.639  -16.677  -8.829
Pt  20.601  -14.715  -8.829
Pt  18.639  -14.715  -6.867
Pt  18.639  -16.677  -4.905
Pt  20.601  -14.715  -4.905
Pt  18.639  -14.715  -2.943
Pt  18.639  -16.677  -0.981
Pt  20.601  -14.715  -0.981
Pt  18.639  -14.715  0.981
Pt  18.639  -16.677  2.943
Pt  20.601  -14.715  2.943
Pt  18.639  -14.715  4.905
Pt  18.639  -16.677  6.867
Pt  20.601  -14.715  6.867
Pt  18.639  -14.715  8.829
Pt  18.639  -16.677  10.791
Pt  20.601  -14.715  10.791
Pt  18.639  -14.715  12.753
Pt  18.639  -10.791  -14.715
Pt  18.639  -12.753  -12.753
Pt  20.601  -10.791  -12.753
Pt  20.601  -12.753  -10.791
Pt  18.639  -10.791  -10.791
Pt  18.639  -12.753  -8.829
Pt  20.601  -10.791  -8.829
Pt  20.601  -12.753  -6.867
Pt  18.639  -10.791  -6.867
Pt  18.639  -12.753  -4.905
Pt  20.601  -10.791  -4.905
Pt  20.601  -12.753  -2.943
Pt  18.639  -10.791  -2.943
Pt  18.639  -12.753  -0.981
Pt  20.601  -10.791  -0.981
Pt  20.601  -12.753  0.981
Pt  18.639  -10.791  0.981
Pt  18.639  -12.753  2.943
Pt  20.601  -10.791  2.943
Pt  20.601  -12.753  4.905
Pt  18.639  -10.791  4.905
Pt  18.639  -12.753  6.867
Pt  20.601  -10.791  6.867
Pt  20.601  -12.753  8.829
Pt  18.639  -10.791  8.829
Pt  18.639  -12.753  10.791
Pt  20.601  -10.791  10.791
Pt  20.601  -12.753  12.753
Pt  18.639  -10.791  12.753
Pt  18.639  -12.753  14.715
Pt  20.601  -10.791  14.715
Pt  18.639  -10.791  16.677
Pt  18.639  -8.829  -16.677
Pt  20.601  -8.829  -14.715
Pt  18.639  -6.867  -14.715
Pt  18.639  -8.829  -12.753
Pt  20.601  -6.867  -12.753
Pt  20.601  -8.829  -10.791
Pt  18.639  -6.867  -10.791
Pt  18.639  -8.829  -8.829
Pt  20.601  -6.867  -8.829
Pt  20.601  -8.829  -6.867
Pt  18.639  -6.867  -6.867
Pt  18.639  -8.829  -4.905
Pt  20.601  -6.867  -4.905
Pt  20.601  -8.829  -2.943
Pt  18.639  -6.867  -2.943
Pt  18.639  -8.829  -0.981
Pt  20.601  -6.867  -0.981
Pt  20.601  -8.829  0.981
Pt  18.639  -6.867  0.981
Pt  18.639  -8.829  2.943
Pt  20.601  -6.867  2.943
Pt  20.601  -8.829  4.905
Pt  18.639  -6.867  4.905
Pt  18.639  -8.829  6.867
Pt  20.601  -6.867  6.867
Pt  20.601  -8.829  8.829
Pt  18.639  -6.867  8.829
Pt  18.639  -8.829  10.791
Pt  20.601  -6.867  10.791
Pt  20.601  -8.829  12.753
Pt  18.639  -6.867  12.753
Pt  18.639  -8.829  14.715
Pt  20.601  -6.867  14.715
Pt  18.639  -6.867  16.677
Pt  18.639  -4.905  -16.677
Pt  20.601  -4.905  -14.715
Pt  18.639  -2.943  -14.715
Pt  18.639  -4.905  -12.753
Pt  20.601  -2.943  -12.753
Pt  20.601  -4.905  -10.791
Pt  18.639  -2.943  -10.791
Pt  18.639  -4.905  -8.829
Pt  20.601  -2.943  -8.829
Pt  20.601  -4.905  -6.867
Pt  18.639  -2.943  -6.867
Pt  18.639  -4.905  -4.905
Pt  20.601  -2.943  -4.905
Pt  20.601  -4.905  -2.943
Pt  18.639  -2.943  -2.943
Pt  18.639  -4.905  -0.981
Pt  20.601  -2.943  -0.981
Pt  20.601  -4.905  0.981
Pt  18.639  -2.943  0.981
Pt  18.639  -4.905  2.943
Pt  20.601  -2.943  2.943
Pt  20.601  -4.905  4.905
Pt  18.639  -2.943  4.905
Pt  18.639  -4.905  6.867
Pt  20.601  -2.943  6.867
Pt  20.601  -4.905  8.829
Pt  18.639  -2.943  8.829
Pt  18.639  -4.905  10.791
Pt  20.601  -2.943  10.791
Pt  20.601  -4.905  12.753
Pt  18.639  -2.943  12.753
Pt  18.639  -4.905  14.715
Pt  20.601  -2.943  14.715
Pt  18.639  -2.943  16.677
Pt  18.639  -0.981  -16.677
Pt  20.601  -0.981  -14.715
Pt  18.639  0.981  -14.715
Pt  18.639  -0.981  -12.753
Pt  20.601  0.981  -12.753
Pt  20.601  -0.981  -10.791
Pt  18.639  0.981  -10.791
Pt  18.639  -0.981  -8.829
Pt  20.601  0.981  -8.829
Pt  20.601  -0.981  -6.867
Pt  18.639  0.981  -6.867
Pt  18.639  -0.981  -4.905
Pt  20.601  0.981  -4.905
Pt  20.601  -0.981  -2.943
Pt  18.639  0.981  -2.943
Pt  18.639  -0.981  -0.981
Pt  20.601  0.981  -0.981
Pt  20.601  -0.981  0.981
Pt  18.639  0.981  0.981
Pt  18.639  -0.981  2.943
Pt  20.601  0.981  2.943
Pt  20.601  -0.981  4.905
Pt  18.639  0.981  4.905
Pt  18.639  -0.981  6.867
Pt  20.601  0.981  6.867
Pt  20.601  -0.981  8.829
Pt  18.639  0.981  8.829
Pt  18.639  -0.981  10.791
Pt  20.601  0.981  10.791
Pt  20.601  -0.981  12.753
Pt  18.639  0.981  12.753
Pt  18.639  -0.981  14.715
Pt  20.601  0.981  14.715
Pt  18.639  0.981  16.677
Pt  18.639  2.943  -16.677
Pt  20.601  2.943  -14.715
Pt  18.639  4.905  -14.715
Pt  18.639  2.943  -12.753
Pt  20.601  4.905  -12.753
Pt  20.601  2.943  -10.791
Pt  18.639  4.905  -10.791
Pt  18.639  2.943  -8.829
Pt  20.601  4.905  -8.829
Pt  20.601  2.943  -6.867
Pt  18.639  4.905  -6.867
Pt  18.639  2.943  -4.905
Pt  20.601  4.905  -4.905
Pt  20.601  2.943  -2.943
Pt  18.639  4.905  -2.943
Pt  18.639  2.943  -0.981
Pt  20.601  4.905  -0.981
Pt  20.601  2.943  0.981
Pt  18.639  4.905  0.981
Pt  18.639  2.943  2.943
Pt  20.601  4.905  2.943
Pt  20.601  2.943  4.905
Pt  18.639  4.905  4.905
Pt  18.639  2.943  6.867
Pt  20.601  4.905  6.867
Pt  20.601  2.943  8.829
Pt  18.639  4.905  8.829
Pt  18.639  2.943  10.791
Pt  20.601  4.905  10.791
Pt  20.601  2.943  12.753
Pt  18.639  4.905  12.753
Pt  18.639  2.943  14.715
Pt  20.601  4.905  14.715
Pt  18.639  4.905  16.677
Pt  18.639  6.867  -16.677
Pt  20.601  6.867  -14.715
Pt  18.639  8.829  -14.715
Pt  18.639  6.867  -12.753
Pt  20.601  8.829  -12.753
Pt  20.601  6.867  -10.791
Pt  18.639  8.829  -10.791
Pt  18.639  6.867  -8.829
Pt  20.601  8.829  -8.829
Pt  20.601  6.867  -6.867
Pt  18.639  8.829  -6.867
Pt  18.639  6.867  -4.905
Pt  20.601  8.829  -4.905
Pt  20.601  6.867  -2.943
Pt  18.639  8.829  -2.943
Pt  18.639  6.867  -0.981
Pt  20.601  8.829  -0.981
Pt  20.601  6.867  0.981
Pt  18.639  8.829  0.981
Pt  18.639  6.867  2.943
Pt  20.601  8.829  2.943
Pt  20.601  6.867  4.905
Pt  18.639  8.829  4.905
Pt  18.639  6.867  6.867
Pt  20.601  8.829  6.867
Pt  20.601  6.867  8.829
Pt  18.639  8.829  8.829
Pt  18.639  6.867  10.791
Pt  20.601  8.829  10.791
Pt  20.601  6.867  12.753
Pt  18.639  8.829  12.753
Pt  18.639  6.867  14.715
Pt  20.601  8.829  14.715
Pt  18.639  8.829  16.677
Pt  18.639  10.791  -16.677
Pt  20.601  10.791  -14.715
Pt  18.639  12.753  -14.715
Pt  18.639  10.791  -12.753
Pt  20.601  12.753  -12.753
Pt  20.601  10.791  -10.791
Pt  18.639  12.753  -10.791
Pt  18.639  10.791  -8.829
Pt  20.601  12.753  -8.829
Pt  20.601  10.791  -6.867
Pt  18.639  12.753  -6.867
Pt  18.639  10.791  -4.905
Pt  20.601  12.753  -4.905
Pt  20.601  10.791  -2.943
Pt  18.639  12.753  -2.943
Pt  18.639  10.791  -0.981
Pt  20.601  12.753  -0.981
Pt  20.601  10.791  0.981
Pt  18.639  12.753  0.981
Pt  18.639  10.791  2.943
Pt  20.601  12.753  2.943
Pt  20.601  10.791  4.905
Pt  18.639  12.753  4.905
Pt  18.639  10.791  6.867
Pt  20.601  12.753  6.867
Pt  20.601  10.791  8.829
Pt  18.639  12.753  8.829
Pt  18.639  10.791  10.791
Pt  20.601  12.753  10.791
Pt  20.601  10.791  12.753
Pt  18.639  12.753  12.753
Pt  18.639  10.791  14.715
Pt  18.639  14.715  -12.753
Pt  20.601  14.715  -10.791
Pt  18.639  16.677  -10.791
Pt  18.639  14.715  -8.829
Pt  20.601  14.715  -6.867
Pt  18.639  16.677  -6.867
Pt  18.639  14.715  -4.905
Pt  20.601  14.715  -2.943
Pt  18.639  16.677  -2.943
Pt  18.639  14.715  -0.981
Pt  20.601  14.715  0.981
Pt  18.639  16.677  0.981
Pt  18.639  14.715  2.943
Pt  20.601  14.715  4.905
Pt  18.639  16.677  4.905
Pt  18.639  14.715  6.867
Pt  20.601  14.715  8.829
Pt  18.639  16.677  8.829
Pt  18.639  14.715  10.791
Pt  22.563  -10.791  -10.791
Pt  22.563  -12.753  -8.829
Pt  24.525  -10.791  -8.829
Pt  22.563  -10.791  -6.867
Pt  22.563  -12.753  -4.905
Pt  24.525  -10.791  -4.905
Pt  22.563  -10.791  -2.943
Pt  22.563  -12.753  -0.981
Pt  24.525  -10.791  -0.981
Pt  22.563  -10.791  0.981
Pt  22.563  -12.753  2.943
Pt  24.525  -10.791  2.943
Pt  22.563  -10.791  4.905
Pt  22.563  -12.753  6.867
Pt  24.525  -10.791  6.867
Pt  22.563  -10.791  8.829
Pt  22.563  -12.753  10.791
Pt  24.525  -10.791  10.791
Pt  22.563  -10.791  12.753
Pt  22.563  -8.829  -12.753
Pt  24.525  -8.829  -10.791
Pt  22.563  -6.867  -10.791
Pt  22.563  -8.829  -8.829
Pt  24.525  -6.867  -8.829
Pt  24.525  -8.829  -6.867
Pt  22.563  -6.867  -6.867
Pt  22.563  -8.829  -4.905
Pt  24.525  -6.867  -4.905
Pt  24.525  -8.829  -2.943
Pt  22.563  -6.867  -2.943
Pt  22.563  -8.829  -0.981
Pt  24.525  -6.867  -0.981
Pt  24.525  -8.829  0.981
Pt  22.563  -6.867  0.981
Pt  22.563  -8.829  2.943
Pt  24.525  -6.867  2.943
Pt  24.525  -8.829  4.905
Pt  22.563  -6.867  4.905
Pt  22.563  -8.829  6.867
Pt  24.525  -6.867  6.867
Pt  24.525  -8.829  8.829
Pt  22.563  -6.867  8.829
Pt  22.563  -8.829  10.791
Pt  24.525  -6.867  10.791
Pt  22.563  -6.867  12.753
Pt  22.563  -4.905  -12.753
Pt  24.525  -4.905  -10.791
Pt  22.563  -2.943  -10.791
Pt  22.563  -4.905  -8.829
Pt  24.525  -2.943  -8.829
Pt  24.525  -4.905  -6.867
Pt  22.563  -2.943  -6.867
Pt  22.563  -4.905  -4.905
Pt  24.525  -2.943  -4.905
Pt  24.525  -4.905  -2.943
Pt  22.563  -2.943  -2.943
Pt  22.563  -4.905  -0.981
Pt  24.525  -2.943  -0.981
Pt  24.525  -4.905  0.981
Pt  22.563  -2.943  0.981
Pt  22.563  -4.905  2.943
Pt  24.525  -2.943  2.943
Pt  24.525  -4.905  4.905
Pt  22.563  -2.943  4.905
Pt  22.563  -4.905  6.867
Pt  24.525  -2.943  6.867
Pt  24.525  -4.905  8.829
Pt  22.563  -2.943  8.829
Pt  22.563  -4.905  10.791
Pt  24.525  -2.943  10.791
Pt  22.563  -2.943  12.753
Pt  22.563  -0.981  -12.753
Pt  24.525  -0.981  -10.791
Pt  22.563  0.981  -10.791
Pt  22.563  -0.981  -8.829
Pt  24.525  0.981  -8.829
Pt  24.525  -0.981  -6.867
Pt  22.563  0.981  -6.867
Pt  22.563  -0.981  -4.905
Pt  24.525  0.981  -4.905
Pt  24.525  -0.981  -2.943
Pt  22.563  0.981  -2.943
Pt  22.563  -0.981  -0.981
Pt  24.525  0.981  -0.981
Pt  24.525  -0.981  0.981
Pt  22.563  0.981  0.981
Pt  22.563  -0.981  2.943
Pt  24.525  0.981  2.943
Pt  24.525  -0.981  4.905
Pt  22.563  0.981  4.905
Pt  22.563  -0.981  6.867
Pt  24.525  0.981  6.867
Pt  24.525  -0.981  8.829
Pt  22.563  0.981  8.829
Pt  22.563  -0.981  10.791
Pt  24.525  0.981  10.791
Pt  22.563  0.981  12.753
Pt  22.563  2.943  -12.753
Pt  24.525  2.943  -10.791
Pt  22.563  4.905  -10.791
Pt  22.563  2.943  -8.829
Pt  24.525  4.905  -8.829
Pt  24.525  2.943  -6.867
Pt  22.563  4.905  -6.867
Pt  22.563  2.943  -4.905
Pt  24.525  4.905  -4.905
Pt  24.525  2.943  -2.943
Pt  22.563  4.905  -2.943
Pt  22.563  2.943  -0.981
Pt  24.525  4.905  -0.981
Pt  24.525  2.943  0.981
Pt  22.563  4.905  0.981
Pt  22.563  2.943  2.943
Pt  24.525  4.905  2.943
Pt  24.525  2.943  4.905
Pt  22.563  4.905  4.905
Pt  22.563  2.943  6.867
Pt  24.525  4.905  6.867
Pt  24.525  2.943  8.829
Pt  22.563  4.905  8.829
Pt  22.563  2.943  10.791
Pt  24.525  4.905  10.791
Pt  22.563  4.905  12.753
Pt  22.563  6.867  -12.753
Pt  24.525  6.867  -10.791
Pt  22.563  8.829  -10.791
Pt  22.563  6.867  -8.829
Pt  24.525  8.829  -8.829
Pt  24.525  6.867  -6.867
Pt  22.563  8.829  -6.867
Pt  22.563  6.867  -4.905
Pt  24.525  8.829  -4.905
Pt  24.525  6.867  -2.943
Pt  22.563  8.829  -2.943
Pt  22.563  6.867  -0.981
Pt  24.525  8.829  -0.981
Pt  24.525  6.867  0.981
Pt  22.563  8.829  0.981
Pt  22.563  6.867  2.943
Pt  24.525  8.829  2.943
Pt  24.525  6.867  4.905
Pt  22.563  8.829  4.905
Pt  22.563  6.867  6.867
Pt  24.525  8.829  6.867
Pt  24.525  6.867  8.829
Pt  22.563  8.829  8.829
Pt  22.563  6.867  10.791
Pt  24.525  8.829  10.791
Pt  22.563  8.829  12.753
Pt  22.563  10.791  -12.753
Pt  24.525  10.791  -10.791
Pt  22.563  12.753  -10.791
Pt  22.563  10.791  -8.829
Pt  24.525  10.791  -6.867
Pt  22.563  12.753  -6.867
Pt  22.563  10.791  -4.905
Pt  24.525  10.791  -2.943
Pt  22.563  12.753  -2.943
Pt  22.563  10.791  -0.981
Pt  24.525  10.791  0.981
Pt  22.563  12.753  0.981
Pt  22.563  10.791  2.943
Pt  24.525  10.791  4.905
Pt  22.563  12.753  4.905
Pt  22.563  10.791  6.867
Pt  24.525  10.791  8.829
Pt  22.563  12.753  8.829
Pt  22.563  10.791  10.791
Pt  26.487  -8.829  -8.829
Pt  26.487  -6.867  -6.867
Pt  26.487  -8.829  -4.905
Pt  28.449  -6.867  -4.905
Pt  26.487  -6.867  -2.943
Pt  26.487  -8.829  -0.981
Pt  28.449  -6.867  -0.981
Pt  26.487  -6.867  0.981
Pt  26.487  -8.829  2.943
Pt  28.449  -6.867  2.943
Pt  26.487  -6.867  4.905
Pt  26.487  -8.829  6.867
Pt  28.449  -6.867  6.867
Pt  26.487  -6.867  8.829
Pt  26.487  -4.905  -8.829
Pt  28.449  -4.905  -6.867
Pt  26.487  -2.943  -6.867
Pt  26.487  -4.905  -4.905
Pt  28.449  -2.943  -4.905
Pt  28.449  -4.905  -2.943
Pt  26.487  -2.943  -2.943
Pt  26.487  -4.905  -0.981
Pt  28.449  -2.943  -0.981
Pt  28.449  -4.905  0.981
Pt  26.487  -2.943  0.981
Pt  26.487  -4.905  2.943
Pt  28.449  -2.943  2.943
Pt  28.449  -4.905  4.905
Pt  26.487  -2.943  4.905
Pt  26.487  -4.905  6.867
Pt  28.449  -2.943  6.867
Pt  26.487  -2.943  8.829
Pt  26.487  -0.981  -8.829
Pt  28.449  -0.981  -6.867
Pt  26.487  0.981  -6.867
Pt  26.487  -0.981  -4.905
Pt  28.449  0.981  -4.905
Pt  28.449  -0.981  -2.943
Pt  26.487  0.981  -2.943
Pt  26.487  -0.981  -0.981
Pt  28.449  0.981  -0.981
Pt  28.449  -0.981  0.981
Pt  26.487  0.981  0.981
Pt  26.487  -0.981  2.943
Pt  28.449  0.981  2.943
Pt  28.449  -0.981  4.905
Pt  26.487  0.981  4.905
Pt  26.487  -0.981  6.867
Pt  28.449  0.981  6.867
Pt  26.487  0.981  8.829
Pt  26.487  2.943  -8.829
Pt  28.449  2.943  -6.867
Pt  26.487  4.905  -6.867
Pt  26.487  2.943  -4.905
Pt  28.449  4.905  -4.905
Pt  28.449  2.943  -2.943
Pt  26.487  4.905  -2.943
Pt  26.487  2.943  -0.981
Pt  28.449  4.905  -0.981
Pt  28.449  2.943  0.981
Pt  26.487  4.905  0.981
Pt  26.487  2.943  2.943
Pt  28.449  4.905  2.943
Pt  28.449  2.943  4.905
Pt  26.487  4.905  4.905
Pt  26.487  2.943  6.867
Pt  28.449  4.905  6.867
Pt  26.487  4.905  8.829
Pt  26.487  6.867  -8.829
Pt  28.449  6.867  -6.867
Pt  26.487  8.829  -6.867
Pt  26.487  6.867  -4.905
Pt  28.449  6.867  -2.943
Pt  26.487  8.829  -2.943
Pt  26.487  6.867  -0.981
Pt  28.449  6.867  0.981
Pt  26.487  8.829  0.981
Pt  26.487  6.867  2.943
Pt  28.449  6.867  4.905
Pt  26.487  8.829  4.905
Pt  26.487  6.867  6.867
Pt  26.487  8.829  8.829
